units		    real
atom_style	    full
boundary        p p p
pair_style      lj/cut/coul/long 14
pair_modify     shift yes mix arithmetic tail no
kspace_style    pppm 1e-5
bond_style      harmonic
angle_style     harmonic
processors      2 2 *

#----------------------------------------------------------------------------#
#                               Variables
#----------------------------------------------------------------------------#

variable  TEMP_INDEX       equal 220
variable  simulationTemp   equal ${TEMP_INDEX}
variable  simulationTemp   equal 220
variable  timestep         equal 0.5
variable  RandomSeed       equal 1000
variable  Seed_L           equal ${RandomSeed}*7
variable  Seed_L           equal 1000*7
variable  Seed_V1          equal ${RandomSeed}*2
variable  Seed_V1          equal 1000*2
variable  Seed_V2          equal ${RandomSeed}*5
variable  Seed_V2          equal 1000*5

variable  nz_bin           equal 100
variable  bin_size         equal 1/${nz_bin}
variable  bin_size         equal 1/100
variable  restartfreq      equal 2000000        # 1 ns
variable  balance_freq     equal 8000000        # 4 ns
variable  thermo_num       equal 1000
variable  Lz               equal lz
variable  TEMPERATURE      equal temp
variable  PRESSURE         equal press
variable  KE               equal ke
variable  PE               equal pe
variable  TOT_ENG          equal etotal
variable  ECOUPLE          equal ecouple
variable  ECONSERVE        equal econserve
variable  Nnvt             equal 200000     # 1 ns

#----------------------------------------------------------------------------#
#                        Simulation cell creation
#----------------------------------------------------------------------------#

region          box block 0 40 0 40 0 240

create_box      2 box                                       bond/types 1                                angle/types 1                               extra/bond/per/atom 2                       extra/angle/per/atom 1                      extra/special/per/atom 2
Created orthogonal box = (0 0 0) to (40 40 240)
  2 by 2 by 1 MPI processor grid

molecule        co2mol CO2.mol
Read molecule template co2mol:
# CO2 molecule file. TraPPE-Flex model.
  1 molecules
  0 fragments
  3 atoms with max type 2
  2 bonds with max type 1
  1 angles with max type 1
  0 dihedrals with max type 0
  0 impropers with max type 0
print           "Molecule file loaded successfully"
Molecule file loaded successfully

region          liquid  block 0 40 0 40 75 165
region          vapor_1 block 0 40 0 40 0 75
region          vapor_2 block 0 40 0 40 165 240

create_atoms   	0 random 2298 ${Seed_L}  liquid  mol co2mol 3 overlap 2 maxtry 10000
create_atoms   	0 random 2298 7000  liquid  mol co2mol 3 overlap 2 maxtry 10000
Created 6894 atoms
  using lattice units in orthogonal box = (0 0 0) to (40 40 240)
  create_atoms CPU = 0.469 seconds
create_atoms   	0 random 26 ${Seed_V1} vapor_1 mol co2mol 3 overlap 2 maxtry 10000
create_atoms   	0 random 26 2000 vapor_1 mol co2mol 3 overlap 2 maxtry 10000
Created 78 atoms
  using lattice units in orthogonal box = (0 0 0) to (40 40 240)
  create_atoms CPU = 0.002 seconds
create_atoms   	0 random 26 ${Seed_V2} vapor_2 mol co2mol 3 overlap 2 maxtry 10000
create_atoms   	0 random 26 5000 vapor_2 mol co2mol 3 overlap 2 maxtry 10000
Created 78 atoms
  using lattice units in orthogonal box = (0 0 0) to (40 40 240)
  create_atoms CPU = 0.002 seconds

include         trappe_flex.FF
#----------------------------------------------------------------------------#
# FORCEFIELD - TraPPE Flexible model for CO2 (DOI- 10.1021/acs.jced.9b00006)
#----------------------------------------------------------------------------#

pair_coeff      1   1  0.0536545107   2.8         # O=[C]=O
pair_coeff      2   2  0.1569891239   3.05        # [O]=C=O

bond_coeff      1   1028.266  1.16

angle_coeff     1   55.96  180

mass            1   12.010700                     # C
mass            2   15.999400                     # O

set type        1   charge     +0.7000            # C
Setting atom values ...
  2350 settings made for charge
set type        2   charge     -0.3500            # O
Setting atom values ...
  4700 settings made for charge
# read_restart   restart_CO2.2

print           "lz=${Lz}"
lz=240

#----------------------------------------------------------------------------#
#                           GROUPS / NEIGHBOUR-LIST / BALANCE
#----------------------------------------------------------------------------#

group           car  type 1
2350 atoms in group car
group           oxy  type 2
4700 atoms in group oxy

neighbor	    3.0 bin
neigh_modify    every 1 delay 0 check yes
run_style       verlet
balance         0.8 shift xyz 20 1.2 out tmp.balance
Balancing ...
PPPM initialization ...
  using 12-bit tables for long-range coulomb (src/kspace.cpp:342)
  G vector (1/distance) = 0.20169663
  grid = 24 24 80
  stencil order = 5
  estimated absolute RMS force accuracy = 0.00286774
  estimated relative force accuracy = 8.6361139e-06
  using single precision FFTW3
  3d grid and FFT values/proc = 31046 11520
Generated 1 of 1 mixed pair_coeff terms from arithmetic mixing rule
Last active /omp style is kspace_style pppm/omp
Neighbor list info ...
  update: every = 1 steps, delay = 0 steps, check = yes
  max neighbors/atom: 2000, page size: 100000
  master list distance cutoff = 17
  ghost atom cutoff = 17
  binsize = 8.5, bins = 5 5 29
  1 neighbor lists, perpetual/occasional/extra = 1 0 0
  (1) pair lj/cut/coul/long/omp, perpetual
      attributes: half, newton on, omp
      pair build: half/bin/newton/omp
      stencil: half/bin/3d
      bin: standard
 rebalancing time: 0.010 seconds
  iteration count = 4
  initial/final maximal load/proc = 1796 1902
  initial/final imbalance factor  = 1.0190071 1.0791489
  x cuts: 0 0.46875 1
  y cuts: 0 0.5 1
  z cuts: 0 1

#----------------------------------------------------------------------------#
#                           CONGUGATE-GRADIENT MINIMIZATION/Initialization
#----------------------------------------------------------------------------#

minimize        1e-6 1e-8 100000 10000000
PPPM initialization ...
  using 12-bit tables for long-range coulomb (src/kspace.cpp:342)
  G vector (1/distance) = 0.20169663
  grid = 24 24 80
  stencil order = 5
  estimated absolute RMS force accuracy = 0.00286774
  estimated relative force accuracy = 8.6361139e-06
  using single precision FFTW3
  3d grid and FFT values/proc = 32680 12480
Generated 1 of 1 mixed pair_coeff terms from arithmetic mixing rule
Last active /omp style is kspace_style pppm/omp
Per MPI rank memory allocation (min/avg/max) = 13.16 | 13.44 | 13.73 Mbytes
   Step          Temp          E_pair         E_mol          TotEng         Press     
         0   0              49336.872      7.9026918e-12  49336.872      43177.231    
      2347   0             -11725.545      21.631103     -11703.914     -424.40566    
Loop time of 107.841 on 4 procs for 2347 steps with 7050 atoms

99.5% CPU use with 4 MPI tasks x 1 OpenMP threads

Minimization stats:
  Stopping criterion = energy tolerance
  Energy initial, next-to-last, final = 
      49336.8715501823  -11703.9031886286  -11703.9142125068
  Force two-norm initial, final = 12256.268 9.0916246
  Force max component initial, final = 805.65186 2.6723649
  Final line search alpha, max atom move = 0.051421216 0.13741625
  Iterations, force evaluations = 2347 4638

MPI task timing breakdown:
Section |  min time  |  avg time  |  max time  |%varavg| %total
---------------------------------------------------------------
Pair    | 79.469     | 85.716     | 96.83      |  71.3 | 79.48
Bond    | 0.22785    | 0.24155    | 0.26577    |   3.0 |  0.22
Kspace  | 8.7789     | 19.954     | 26.247     | 148.7 | 18.50
Neigh   | 0.73009    | 0.73998    | 0.74984    |   1.1 |  0.69
Comm    | 0.87325    | 0.92294    | 0.98067    |   4.3 |  0.86
Output  | 0          | 0          | 0          |   0.0 |  0.00
Modify  | 0.046266   | 0.050157   | 0.053779   |   1.4 |  0.05
Other   |            | 0.2169     |            |       |  0.20

Nlocal:         1762.5 ave        1984 max        1673 min
Histogram: 2 1 0 0 0 0 0 0 0 1
Nghost:        11165.8 ave       11800 max       10574 min
Histogram: 1 0 0 1 0 1 0 0 0 1
Neighs:         914953 ave 1.04853e+06 max      848999 min
Histogram: 2 0 1 0 0 0 0 0 0 1

Total # of neighbors = 3659812
Ave neighs/atom = 519.12227
Ave special neighs/atom = 2
Neighbor list builds = 29
Dangerous builds = 0
fix             COM_DRIFT all momentum 1 linear 1 1 1 rescale
velocity        all create ${simulationTemp} ${RandomSeed} mom yes rot yes dist gaussian
velocity        all create 220 ${RandomSeed} mom yes rot yes dist gaussian
velocity        all create 220 1000 mom yes rot yes dist gaussian
velocity        all zero linear
velocity        all zero angular
thermo_style    custom step etotal press temp dt
thermo_modify   flush yes
thermo          ${thermo_num}
thermo          1000
reset_timestep  0
write_data      ${NAME}_init.data
write_data      CO2_init.data
System init for write_data ...
PPPM initialization ...
  using 12-bit tables for long-range coulomb (src/kspace.cpp:342)
  G vector (1/distance) = 0.20169663
  grid = 24 24 80
  stencil order = 5
  estimated absolute RMS force accuracy = 0.00286774
  estimated relative force accuracy = 8.6361139e-06
  using single precision FFTW3
  3d grid and FFT values/proc = 32680 12480
Generated 1 of 1 mixed pair_coeff terms from arithmetic mixing rule
Last active /omp style is kspace_style pppm/omp

#----------------------------------------------------------------------------#
#                           Compute
#----------------------------------------------------------------------------#

compute         layers  all chunk/atom bin/1d z lower ${bin_size} units reduced
compute         layers  all chunk/atom bin/1d z lower 0.01 units reduced
compute         T       all temp
compute         pTensor all pressure T
compute         mom     all momentum

variable        TM      equal mass(all)
variable        vx_com  equal c_mom[1]/v_TM
variable        vy_com  equal c_mom[2]/v_TM
variable        vz_com  equal c_mom[3]/v_TM

#----------------------------------------------------------------------------#
#                           Write Headers to Files
#----------------------------------------------------------------------------#

print "#Step Pxx Pyy Pzz" file pressure_tensor.dat
#Step Pxx Pyy Pzz
print "#Step temp press ke pe etotal ecouple econserve" file Energy.dat
#Step temp press ke pe etotal ecouple econserve
print "#Step px py pz COM_vx COM_vy COM_vz" file Momentum.dat
#Step px py pz COM_vx COM_vy COM_vz

#----------------------------------------------------------------------------#
#                           NVT (Initialization/Production)
#----------------------------------------------------------------------------#

fix             NVE          all    nve
fix             NVT          all    temp/csvr  ${simulationTemp} ${simulationTemp} 100 ${RandomSeed}
fix             NVT          all    temp/csvr  220 ${simulationTemp} 100 ${RandomSeed}
fix             NVT          all    temp/csvr  220 220 100 ${RandomSeed}
fix             NVT          all    temp/csvr  220 220 100 1000
fix             CPU_BALANCE  all    balance    ${balance_freq} 0.8 shift xyz 20 1.2
fix             CPU_BALANCE  all    balance    8000000 0.8 shift xyz 20 1.2
fix		        dens_profile all    ave/chunk  10 100 1000 layers density/mass file massdens_profile.dat
fix             1            all    ave/time   10 100 1000 c_pTensor[1] c_pTensor[2] c_pTensor[3] file pressure_tensor.dat
fix             2            all    ave/time   ${thermo_num} 1 ${thermo_num} v_TEMPERATURE v_PRESSURE v_KE v_PE v_TOT_ENG v_ECOUPLE v_ECONSERVE file Energy.dat
fix             2            all    ave/time   1000 1 ${thermo_num} v_TEMPERATURE v_PRESSURE v_KE v_PE v_TOT_ENG v_ECOUPLE v_ECONSERVE file Energy.dat
fix             2            all    ave/time   1000 1 1000 v_TEMPERATURE v_PRESSURE v_KE v_PE v_TOT_ENG v_ECOUPLE v_ECONSERVE file Energy.dat
fix             3            all    ave/time   ${thermo_num} 1 ${thermo_num} c_mom[1] c_mom[2] c_mom[3] v_vx_com v_vy_com v_vz_com file Momentum.dat
fix             3            all    ave/time   1000 1 ${thermo_num} c_mom[1] c_mom[2] c_mom[3] v_vx_com v_vy_com v_vz_com file Momentum.dat
fix             3            all    ave/time   1000 1 1000 c_mom[1] c_mom[2] c_mom[3] v_vx_com v_vy_com v_vz_com file Momentum.dat

timestep        0.5
restart         ${restartfreq} restart_${NAME}.1 restart_${NAME}.2
restart         2000000 restart_${NAME}.1 restart_${NAME}.2
restart         2000000 restart_CO2.1 restart_${NAME}.2
restart         2000000 restart_CO2.1 restart_CO2.2
run             ${Nnvt}
run             200000
PPPM initialization ...
  using 12-bit tables for long-range coulomb (src/kspace.cpp:342)
  G vector (1/distance) = 0.20169663
  grid = 24 24 80
  stencil order = 5
  estimated absolute RMS force accuracy = 0.00286774
  estimated relative force accuracy = 8.6361139e-06
  using single precision FFTW3
  3d grid and FFT values/proc = 32680 12480
Generated 1 of 1 mixed pair_coeff terms from arithmetic mixing rule
Last active /omp style is kspace_style pppm/omp
Per MPI rank memory allocation (min/avg/max) = 12.83 | 13.15 | 13.51 Mbytes
   Step         TotEng         Press           Temp            Dt      
         0  -7081.3336      125.87737      220            0.5          
      1000  -3035.6161      1216.3218      219.18549      0.5          
      2000  -2443.9218      1165.5079      196.99497      0.5          
      3000  -1940.9035     -501.0447       212.71658      0.5          
      4000  -1852.2397      334.51708      228.51853      0.5          
      5000  -1771.4625      70.140457      223.10575      0.5          
      6000  -1504.2918     -370.50837      216.76133      0.5          
      7000  -1439.3643     -260.23918      212.33966      0.5          
      8000  -1370.4839     -40.736646      217.12668      0.5          
      9000  -1167.3668     -261.12044      221.24439      0.5          
     10000  -1011.7073     -140.58237      219.46134      0.5          
     11000  -826.41414      171.78923      219.64226      0.5          
     12000  -808.93979     -260.91559      215.13592      0.5          
     13000  -644.81327     -342.74096      220.87821      0.5          
     14000  -568.09539     -97.885528      222.87819      0.5          
     15000  -575.18168      69.983875      220.08025      0.5          
     16000  -610.59734     -234.49852      220.10013      0.5          
     17000  -567.7025      -523.24149      218.852        0.5          
     18000  -644.65736      224.60909      221.10288      0.5          
     19000  -634.48392     -144.72822      218.38389      0.5          
     20000  -677.48769     -184.41166      219.51973      0.5          
     21000  -793.19238     -18.906613      217.17727      0.5          
     22000  -788.00711     -101.86675      218.90481      0.5          
     23000  -803.25838     -28.270701      215.57404      0.5          
     24000  -803.67835     -125.65633      219.50909      0.5          
     25000  -796.22844     -203.25012      220.53305      0.5          
     26000  -762.1095      -25.855734      219.4306       0.5          
     27000  -806.97671     -153.0333       221.15267      0.5          
     28000  -851.52122     -49.03429       219.97478      0.5          
     29000  -831.21588      221.63357      219.24522      0.5          
     30000  -933.70815     -81.858594      220.0085       0.5          
     31000  -713.45995     -12.362842      223.96059      0.5          
     32000  -905.50505      45.618945      218.73583      0.5          
     33000  -905.46613     -18.21694       215.96517      0.5          
     34000  -788.33892     -164.2284       222.48273      0.5          
     35000  -935.48821      116.6937       221.18843      0.5          
     36000  -1040.6759      286.53574      218.64772      0.5          
     37000  -997.5381      -128.86321      219.14506      0.5          
     38000  -886.17169      68.67634       219.38082      0.5          
     39000  -896.7473       163.2512       221.13768      0.5          
     40000  -926.10171      31.270313      219.88703      0.5          
     41000  -935.31148     -3.3819553      220.57718      0.5          
     42000  -877.62389     -82.251696      222.52921      0.5          
     43000  -825.03747      138.87617      225.17666      0.5          
     44000  -929.98232     -34.490276      221.64099      0.5          
     45000  -952.74022     -48.636005      219.77257      0.5          
     46000  -950.38588     -15.008809      221.7128       0.5          
     47000  -961.39819     -234.54852      220.52         0.5          
     48000  -1014.0832      65.592255      222.27819      0.5          
     49000  -1074.2659      60.379077      219.32089      0.5          
     50000  -1036.8011     -110.15688      223.53185      0.5          
     51000  -1149.7224      124.36228      218.38071      0.5          
     52000  -1100.4044      105.89054      218.50051      0.5          
     53000  -1054.0099     -217.4114       216.0604       0.5          
     54000  -1023.2623     -55.326359      220.9276       0.5          
     55000  -1184.539       108.69944      216.25788      0.5          
     56000  -1143.2979      129.92881      218.68829      0.5          
     57000  -1085.4354      167.41283      220.71062      0.5          
     58000  -1109.087       290.60521      221.14463      0.5          
     59000  -1235.8372     -197.30195      219.00913      0.5          
     60000  -1300.9973      122.70815      216.34506      0.5          
     61000  -1158.802       153.45021      220.73881      0.5          
     62000  -1202.515       16.641879      218.94175      0.5          
     63000  -1211.9071      61.226853      218.64498      0.5          
     64000  -1026.5825      133.92879      223.44533      0.5          
     65000  -1059.3295     -167.50685      220.79743      0.5          
     66000  -1192.0112     -225.26225      218.47353      0.5          
     67000  -1219.2095      14.514671      217.06163      0.5          
     68000  -1094.0715      204.39711      219.73548      0.5          
     69000  -1025.4661     -87.32893       220.15644      0.5          
     70000  -938.73408     -118.61175      222.1165       0.5          
     71000  -934.03672     -7.6007459      222.47785      0.5          
     72000  -1031.2656      73.34662       219.25367      0.5          
     73000  -1021.4807      222.83837      220.07347      0.5          
     74000  -860.00481     -249.83663      222.8469       0.5          
     75000  -965.15122     -174.10694      217.88668      0.5          
     76000  -1019.5953     -65.598166      217.16502      0.5          
     77000  -1054.1052      11.545022      217.16525      0.5          
     78000  -896.73041      149.58177      216.98069      0.5          
     79000  -925.77866     -221.55882      218.93594      0.5          
     80000  -894.70224     -191.32464      219.82428      0.5          
     81000  -892.40532      0.50180838     217.62063      0.5          
     82000  -827.63696     -340.47011      222.84402      0.5          
     83000  -892.32364     -124.40183      217.47158      0.5          
     84000  -906.89763      216.09654      220.4984       0.5          
     85000  -874.99317     -109.4326       218.35016      0.5          
     86000  -954.00653      173.57063      217.15975      0.5          
     87000  -857.84819      55.033233      225.21433      0.5          
     88000  -844.49562     -472.11931      220.89953      0.5          
     89000  -938.70664      96.058773      218.33869      0.5          
     90000  -979.31663     -95.4514        217.32036      0.5          
     91000  -966.79621     -247.15904      220.53147      0.5          
     92000  -887.30726      87.885393      222.0089       0.5          
     93000  -1008.4155      411.32348      219.46917      0.5          
     94000  -966.88079     -71.745834      219.43986      0.5          
     95000  -995.4691      -219.51252      216.59056      0.5          
     96000  -1076.7424      309.24612      217.40746      0.5          
     97000  -984.1257       138.70362      218.85237      0.5          
     98000  -1014.1401     -322.90139      221.72868      0.5          
     99000  -1097.676      -4.863843       219.49895      0.5          
    100000  -1141.8554      306.96832      217.99225      0.5          
    101000  -1032.4472      7.4517496      219.81855      0.5          
    102000  -1036.0194      18.434262      218.16485      0.5          
    103000  -918.51141      105.93151      223.87212      0.5          
    104000  -1002.9974     -199.94478      221.49666      0.5          
    105000  -980.42713      64.78857       220.8469       0.5          
    106000  -1026.907       176.45548      219.20252      0.5          
    107000  -1038.3129      16.970707      220.18275      0.5          
    108000  -981.62268      104.55337      223.89887      0.5          
    109000  -1061.495      -38.401774      221.45905      0.5          
    110000  -971.46082     -158.3077       217.3643       0.5          
    111000  -875.52971      335.2123       218.47179      0.5          
    112000  -960.41962     -101.27505      221.73104      0.5          
    113000  -1055.1165      62.530468      216.65738      0.5          
    114000  -784.64879      16.647782      222.50604      0.5          
    115000  -828.41348     -22.828803      218.0579       0.5          
    116000  -766.73211      178.45026      222.46339      0.5          
    117000  -701.92263     -272.86282      221.21972      0.5          
    118000  -781.27399     -53.775082      219.55435      0.5          
    119000  -801.92606     -23.803036      219.37818      0.5          
    120000  -713.17883     -59.748513      222.61157      0.5          
    121000  -754.70638     -95.321407      220.72782      0.5          
    122000  -842.00377     -35.651635      219.69311      0.5          
    123000  -725.78933      252.76183      226.00142      0.5          
    124000  -825.7776       159.03802      219.86294      0.5          
    125000  -830.69383     -169.46619      218.12868      0.5          
    126000  -830.39294     -205.57371      220.46364      0.5          
    127000  -885.19253     -66.115998      217.72084      0.5          
    128000  -816.53266      33.155319      220.75538      0.5          
    129000  -878.26972     -43.713059      219.03012      0.5          
    130000  -706.50874     -107.39682      222.74012      0.5          
    131000  -663.39796      13.471439      229.3502       0.5          
    132000  -834.64733     -8.8472851      219.71096      0.5          
    133000  -901.55171     -193.22904      217.1285       0.5          
    134000  -994.31335      134.87251      215.6517       0.5          
    135000  -955.80613     -45.111576      220.53126      0.5          
    136000  -807.53399     -133.3465       222.47851      0.5          
    137000  -867.95908      14.529096      220.25743      0.5          
    138000  -948.85321      321.38834      220.84971      0.5          
    139000  -854.04754      255.61259      220.78137      0.5          
    140000  -781.86219     -111.22359      223.63641      0.5          
    141000  -954.57706     -62.90599       217.26527      0.5          
    142000  -901.16449     -119.85573      221.12744      0.5          
    143000  -942.504       -40.930721      217.91505      0.5          
    144000  -818.23471      147.43833      224.6901       0.5          
    145000  -919.17156     -9.9827289      216.50019      0.5          
    146000  -899.44876     -192.34508      220.16665      0.5          
    147000  -878.08085      37.154728      219.963        0.5          
    148000  -809.90944      151.89843      223.96726      0.5          
    149000  -711.7562      -88.384502      223.545        0.5          
    150000  -780.59094     -442.21013      219.81382      0.5          
    151000  -736.97299      16.844357      220.87856      0.5          
    152000  -878.42977      93.470176      221.23592      0.5          
    153000  -971.82926     -196.95648      217.16023      0.5          
    154000  -936.26768     -175.33025      218.02803      0.5          
    155000  -914.29635     -51.522807      220.73177      0.5          
    156000  -888.99137      73.247969      219.05866      0.5          
    157000  -869.75147      78.944731      218.4038       0.5          
    158000  -780.24725      282.62644      223.80663      0.5          
    159000  -899.24634     -3.2097087      221.74833      0.5          
    160000  -924.06084     -21.407388      218.79666      0.5          
    161000  -867.9952       48.688309      218.07615      0.5          
    162000  -764.82117      4.9781624      222.27288      0.5          
    163000  -824.1962      -14.368027      220.60139      0.5          
    164000  -776.50359     -37.227081      221.11727      0.5          
    165000  -776.26661     -74.207256      221.22294      0.5          
    166000  -809.41756      272.60794      220.27684      0.5          
    167000  -905.52106     -168.48542      220.24828      0.5          
    168000  -861.59355     -267.6109       220.00453      0.5          
    169000  -750.38934      226.06698      222.67636      0.5          
    170000  -856.1959       63.538284      218.70212      0.5          
    171000  -951.82326     -48.681668      221.38231      0.5          
    172000  -905.22474     -247.49263      219.9794       0.5          
    173000  -918.70216     -30.87843       220.01129      0.5          
    174000  -944.20441      218.44046      219.73581      0.5          
    175000  -861.08822     -275.81148      221.58074      0.5          
    176000  -791.03148     -211.97421      221.59158      0.5          
    177000  -874.91103      189.63333      220.51563      0.5          
    178000  -886.86221      387.5123       219.19671      0.5          
    179000  -821.4081      -305.75711      219.12264      0.5          
    180000  -877.93931     -92.041824      217.14331      0.5          
    181000  -812.94172      350.81858      221.67678      0.5          
    182000  -768.64625     -199.38953      218.58954      0.5          
    183000  -781.89781      7.8566141      218.77977      0.5          
    184000  -827.11459      291.80655      220.7698       0.5          
    185000  -786.70348     -96.125715      217.79091      0.5          
    186000  -698.1545       217.00042      223.05382      0.5          
    187000  -802.72007     -106.3548       216.47576      0.5          
    188000  -696.92933      3.0924193      223.0349       0.5          
    189000  -819.79039      13.177227      221.63849      0.5          
    190000  -844.04306     -245.57733      217.3358       0.5          
    191000  -861.81497     -208.94504      216.8256       0.5          
    192000  -810.71077      58.009302      222.47372      0.5          
    193000  -752.94488     -33.932315      222.43493      0.5          
    194000  -675.30271      220.35721      222.59049      0.5          
    195000  -831.68349     -344.84488      217.68409      0.5          
    196000  -851.46481     -106.63796      222.64447      0.5          
    197000  -836.3606       57.703438      219.38934      0.5          
    198000  -735.66598     -4.0892226      222.61883      0.5          
    199000  -774.05289      282.62329      218.85414      0.5          
    200000  -813.0835      -6.0317981      219.79798      0.5          
Loop time of 2794.27 on 4 procs for 200000 steps with 7050 atoms

Performance: 3.092 ns/day, 7.762 hours/ns, 71.575 timesteps/s, 504.604 katom-step/s
99.5% CPU use with 4 MPI tasks x 1 OpenMP threads

MPI task timing breakdown:
Section |  min time  |  avg time  |  max time  |%varavg| %total
---------------------------------------------------------------
Pair    | 2097.2     | 2222.4     | 2325.4     | 183.1 | 79.54
Bond    | 8.3867     | 8.848      | 9.2482     |  10.9 |  0.32
Kspace  | 378.37     | 479.91     | 602.87     | 385.5 | 17.17
Neigh   | 24.024     | 24.067     | 24.112     |   0.9 |  0.86
Comm    | 37.679     | 40.068     | 42.251     |  29.3 |  1.43
Output  | 0.021154   | 0.071012   | 0.088172   |  10.8 |  0.00
Modify  | 16.614     | 17.383     | 18.113     |  15.1 |  0.62
Other   |            | 1.475      |            |       |  0.05

Nlocal:         1762.5 ave        1916 max        1598 min
Histogram: 1 0 0 0 0 2 0 0 0 1
Nghost:        11161.5 ave       11386 max       10954 min
Histogram: 1 1 0 0 0 0 0 1 0 1
Neighs:         786045 ave      860220 max      710956 min
Histogram: 1 0 0 0 1 1 0 0 0 1

Total # of neighbors = 3144181
Ave neighs/atom = 445.98312
Ave special neighs/atom = 2
Neighbor list builds = 1068
Dangerous builds = 0

unfix           NVT
unfix           COM_DRIFT
unfix           NVE
unfix           CPU_BALANCE
unfix           dens_profile
unfix           1
unfix           2
unfix           3

write_data      ${NAME}_final.data
write_data      CO2_final.data
System init for write_data ...
PPPM initialization ...
  using 12-bit tables for long-range coulomb (src/kspace.cpp:342)
  G vector (1/distance) = 0.20169663
  grid = 24 24 80
  stencil order = 5
  estimated absolute RMS force accuracy = 0.00286774
  estimated relative force accuracy = 8.6361139e-06
  using single precision FFTW3
  3d grid and FFT values/proc = 31046 12480
Generated 1 of 1 mixed pair_coeff terms from arithmetic mixing rule
Last active /omp style is kspace_style pppm/omp
reset_timestep  0

quit
