units		    real
atom_style	    full
boundary        p p p
pair_style      lj/cut/coul/long 14
pair_modify     shift yes mix arithmetic tail no
kspace_style    pppm 1e-5
bond_style      harmonic
angle_style     harmonic
processors      2 2 *

#----------------------------------------------------------------------------#
#                               Variables
#----------------------------------------------------------------------------#

variable  TEMP_INDEX       equal 220
variable  simulationTemp   equal ${TEMP_INDEX}
variable  simulationTemp   equal 220
variable  timestep         equal 0.5
variable  RandomSeed       equal 1000
variable  Seed_L           equal ${RandomSeed}*7
variable  Seed_L           equal 1000*7
variable  Seed_V1          equal ${RandomSeed}*2
variable  Seed_V1          equal 1000*2
variable  Seed_V2          equal ${RandomSeed}*5
variable  Seed_V2          equal 1000*5

variable  nz_bin           equal 100
variable  bin_size         equal 1/${nz_bin}
variable  bin_size         equal 1/100
variable  restartfreq      equal 2000000        # 1 ns
variable  balance_freq     equal 8000000        # 4 ns
variable  thermo_num       equal 1000
variable  Lz               equal lz
variable  TEMPERATURE      equal temp
variable  PRESSURE         equal press
variable  KE               equal ke
variable  PE               equal pe
variable  TOT_ENG          equal etotal
variable  ECOUPLE          equal ecouple
variable  ECONSERVE        equal econserve
variable  Nnvt             equal 2000000     # 1 ns

#----------------------------------------------------------------------------#
#                        Simulation cell creation
#----------------------------------------------------------------------------#

region          box block 0 40 0 40 0 240

create_box      2 box                                       bond/types 1                                angle/types 1                               extra/bond/per/atom 2                       extra/angle/per/atom 1                      extra/special/per/atom 2
Created orthogonal box = (0 0 0) to (40 40 240)
  2 by 2 by 6 MPI processor grid

molecule        co2mol CO2.mol
Read molecule template co2mol:
# CO2 molecule file. TraPPE-Flex model.
  1 molecules
  0 fragments
  3 atoms with max type 2
  2 bonds with max type 1
  1 angles with max type 1
  0 dihedrals with max type 0
  0 impropers with max type 0
print           "Molecule file loaded successfully"
Molecule file loaded successfully

region          liquid  block 0 40 0 40 75 165
region          vapor_1 block 0 40 0 40 0 75
region          vapor_2 block 0 40 0 40 165 240

create_atoms   	0 random 2298 ${Seed_L}  liquid  mol co2mol 3 overlap 2 maxtry 10000
create_atoms   	0 random 2298 7000  liquid  mol co2mol 3 overlap 2 maxtry 10000
Created 6894 atoms
  using lattice units in orthogonal box = (0 0 0) to (40 40 240)
  create_atoms CPU = 0.265 seconds
create_atoms   	0 random 26 ${Seed_V1} vapor_1 mol co2mol 3 overlap 2 maxtry 10000
create_atoms   	0 random 26 2000 vapor_1 mol co2mol 3 overlap 2 maxtry 10000
Created 78 atoms
  using lattice units in orthogonal box = (0 0 0) to (40 40 240)
  create_atoms CPU = 0.005 seconds
create_atoms   	0 random 26 ${Seed_V2} vapor_2 mol co2mol 3 overlap 2 maxtry 10000
create_atoms   	0 random 26 5000 vapor_2 mol co2mol 3 overlap 2 maxtry 10000
Created 78 atoms
  using lattice units in orthogonal box = (0 0 0) to (40 40 240)
  create_atoms CPU = 0.005 seconds

include         trappe_flex.FF
#----------------------------------------------------------------------------#
# FORCEFIELD - TraPPE Flexible model for CO2 (DOI- 10.1021/acs.jced.9b00006)
#----------------------------------------------------------------------------#

pair_coeff      1   1  0.0536545107   2.8         # O=[C]=O
pair_coeff      2   2  0.1569891239   3.05        # [O]=C=O

bond_coeff      1   1028.266  1.16

angle_coeff     1   55.96  180

mass            1   12.010700                     # C
mass            2   15.999400                     # O

set type        1   charge     +0.7000            # C
Setting atom values ...
  2350 settings made for charge
set type        2   charge     -0.3500            # O
Setting atom values ...
  4700 settings made for charge
# read_restart   restart_CO2.2

print           "lz=${Lz}"
lz=240

#----------------------------------------------------------------------------#
#                           GROUPS / NEIGHBOUR-LIST / BALANCE
#----------------------------------------------------------------------------#

group           car  type 1
2350 atoms in group car
group           oxy  type 2
4700 atoms in group oxy

neighbor	    3.0 bin
neigh_modify    every 1 delay 0 check yes
run_style       verlet
balance         0.8 shift xyz 20 1.2 out tmp.balance
Balancing ...
PPPM initialization ...
  using 12-bit tables for long-range coulomb (src/kspace.cpp:342)
  G vector (1/distance) = 0.20169663
  grid = 24 24 80
  stencil order = 5
  estimated absolute RMS force accuracy = 0.00286774
  estimated relative force accuracy = 8.6361139e-06
  using single precision FFTW3
  3d grid and FFT values/proc = 7220 2304
Generated 1 of 1 mixed pair_coeff terms from arithmetic mixing rule
Last active /omp style is kspace_style pppm/omp
Neighbor list info ...
  update: every = 1 steps, delay = 0 steps, check = yes
  max neighbors/atom: 2000, page size: 100000
  master list distance cutoff = 17
  ghost atom cutoff = 17
  binsize = 8.5, bins = 5 5 29
  1 neighbor lists, perpetual/occasional/extra = 1 0 0
  (1) pair lj/cut/coul/long/omp, perpetual
      attributes: half, newton on, omp
      pair build: half/bin/newton/omp
      stencil: half/bin/3d
      bin: standard
 rebalancing time: 0.011 seconds
  iteration count = 14
  initial/final maximal load/proc = 795 333
  initial/final imbalance factor  = 2.706383 1.133617
  x cuts: 0 0.46875 1
  y cuts: 0 0.46875 1
  z cuts: 0 0.36979167 0.43489583 0.49739583 0.56510417 0.63020833 1

#----------------------------------------------------------------------------#
#                           CONGUGATE-GRADIENT MINIMIZATION/Initialization
#----------------------------------------------------------------------------#

minimize        1e-6 1e-8 100000 10000000
PPPM initialization ...
  using 12-bit tables for long-range coulomb (src/kspace.cpp:342)
  G vector (1/distance) = 0.20169663
  grid = 24 24 80
  stencil order = 5
  estimated absolute RMS force accuracy = 0.00286774
  estimated relative force accuracy = 8.6361139e-06
  using single precision FFTW3
  3d grid and FFT values/proc = 14400 5070
Generated 1 of 1 mixed pair_coeff terms from arithmetic mixing rule
Last active /omp style is kspace_style pppm/omp
Per MPI rank memory allocation (min/avg/max) = 9.054 | 9.269 | 9.629 Mbytes
   Step          Temp          E_pair         E_mol          TotEng         Press     
         0   0              49336.872      7.9026918e-12  49336.872      43177.231    
      3320   0             -12043.225      22.75228      -12020.472     -266.43419    
Loop time of 38.6558 on 24 procs for 3320 steps with 7050 atoms

99.4% CPU use with 24 MPI tasks x 1 OpenMP threads

Minimization stats:
  Stopping criterion = energy tolerance
  Energy initial, next-to-last, final = 
       49336.871548504  -12020.4614728394  -12020.4724115919
  Force two-norm initial, final = 12256.268 6.1250069
  Force max component initial, final = 805.65186 0.88171651
  Final line search alpha, max atom move = 0.064419604 0.056799828
  Iterations, force evaluations = 3320 6605

MPI task timing breakdown:
Section |  min time  |  avg time  |  max time  |%varavg| %total
---------------------------------------------------------------
Pair    | 6.06       | 21.653     | 32.519     | 177.7 | 56.01
Bond    | 0.050413   | 0.071799   | 0.08917    |   4.7 |  0.19
Kspace  | 4.3781     | 15.276     | 30.887     | 212.5 | 39.52
Neigh   | 0.21731    | 0.2185     | 0.22       |   0.1 |  0.57
Comm    | 0.87034    | 1.1091     | 1.3056     |  12.0 |  2.87
Output  | 0          | 0          | 0          |   0.0 |  0.00
Modify  | 0.026767   | 0.039538   | 0.053823   |   4.7 |  0.10
Other   |            | 0.2883     |            |       |  0.75

Nlocal:         293.75 ave         438 max         116 min
Histogram: 8 0 0 0 0 0 3 5 6 2
Nghost:        6101.58 ave        8831 max        3692 min
Histogram: 7 1 0 1 5 2 0 1 4 3
Neighs:         161847 ave      279754 max       20864 min
Histogram: 4 4 0 0 0 0 5 6 3 2

Total # of neighbors = 3884327
Ave neighs/atom = 550.96837
Ave special neighs/atom = 2
Neighbor list builds = 36
Dangerous builds = 0
fix             COM_DRIFT all momentum 1 linear 1 1 1 rescale
velocity        all create ${simulationTemp} ${RandomSeed} mom yes rot yes dist gaussian
velocity        all create 220 ${RandomSeed} mom yes rot yes dist gaussian
velocity        all create 220 1000 mom yes rot yes dist gaussian
velocity        all zero linear
velocity        all zero angular
thermo_style    custom step etotal press temp dt
thermo_modify   flush yes
thermo          ${thermo_num}
thermo          1000
reset_timestep  0
write_data      ${NAME}_init.data
write_data      CO2_init.data
System init for write_data ...
PPPM initialization ...
  using 12-bit tables for long-range coulomb (src/kspace.cpp:342)
  G vector (1/distance) = 0.20169663
  grid = 24 24 80
  stencil order = 5
  estimated absolute RMS force accuracy = 0.00286774
  estimated relative force accuracy = 8.6361139e-06
  using single precision FFTW3
  3d grid and FFT values/proc = 14400 5070
Generated 1 of 1 mixed pair_coeff terms from arithmetic mixing rule
Last active /omp style is kspace_style pppm/omp

#----------------------------------------------------------------------------#
#                           Compute
#----------------------------------------------------------------------------#

compute         layers  all chunk/atom bin/1d z lower ${bin_size} units reduced
compute         layers  all chunk/atom bin/1d z lower 0.01 units reduced
compute         T       all temp
compute         pTensor all pressure T
compute         mom     all momentum

variable        TM      equal mass(all)
variable        vx_com  equal c_mom[1]/v_TM
variable        vy_com  equal c_mom[2]/v_TM
variable        vz_com  equal c_mom[3]/v_TM

#----------------------------------------------------------------------------#
#                           Write Headers to Files
#----------------------------------------------------------------------------#

print "#Step Pxx Pyy Pzz" file pressure_tensor.dat
#Step Pxx Pyy Pzz
print "#Step temp press ke pe etotal ecouple econserve" file Energy.dat
#Step temp press ke pe etotal ecouple econserve
print "#Step px py pz COM_vx COM_vy COM_vz" file Momentum.dat
#Step px py pz COM_vx COM_vy COM_vz

#----------------------------------------------------------------------------#
#                           NVT (Initialization/Production)
#----------------------------------------------------------------------------#

fix             NVE          all    nve
fix             NVT          all    temp/csvr  ${simulationTemp} ${simulationTemp} 100 ${RandomSeed}
fix             NVT          all    temp/csvr  220 ${simulationTemp} 100 ${RandomSeed}
fix             NVT          all    temp/csvr  220 220 100 ${RandomSeed}
fix             NVT          all    temp/csvr  220 220 100 1000
fix             CPU_BALANCE  all    balance    ${balance_freq} 0.8 shift xyz 20 1.2
fix             CPU_BALANCE  all    balance    8000000 0.8 shift xyz 20 1.2
fix		        dens_profile all    ave/chunk  10 100 1000 layers density/mass file massdens_profile.dat
fix             1            all    ave/time   10 100 1000 c_pTensor[1] c_pTensor[2] c_pTensor[3] file pressure_tensor.dat
fix             2            all    ave/time   ${thermo_num} 1 ${thermo_num} v_TEMPERATURE v_PRESSURE v_KE v_PE v_TOT_ENG v_ECOUPLE v_ECONSERVE file Energy.dat
fix             2            all    ave/time   1000 1 ${thermo_num} v_TEMPERATURE v_PRESSURE v_KE v_PE v_TOT_ENG v_ECOUPLE v_ECONSERVE file Energy.dat
fix             2            all    ave/time   1000 1 1000 v_TEMPERATURE v_PRESSURE v_KE v_PE v_TOT_ENG v_ECOUPLE v_ECONSERVE file Energy.dat
fix             3            all    ave/time   ${thermo_num} 1 ${thermo_num} c_mom[1] c_mom[2] c_mom[3] v_vx_com v_vy_com v_vz_com file Momentum.dat
fix             3            all    ave/time   1000 1 ${thermo_num} c_mom[1] c_mom[2] c_mom[3] v_vx_com v_vy_com v_vz_com file Momentum.dat
fix             3            all    ave/time   1000 1 1000 c_mom[1] c_mom[2] c_mom[3] v_vx_com v_vy_com v_vz_com file Momentum.dat

timestep        0.5
restart         ${restartfreq} restart_${NAME}.1 restart_${NAME}.2
restart         2000000 restart_${NAME}.1 restart_${NAME}.2
restart         2000000 restart_CO2.1 restart_${NAME}.2
restart         2000000 restart_CO2.1 restart_CO2.2
run             ${Nnvt}
run             2000000
PPPM initialization ...
  using 12-bit tables for long-range coulomb (src/kspace.cpp:342)
  G vector (1/distance) = 0.20169663
  grid = 24 24 80
  stencil order = 5
  estimated absolute RMS force accuracy = 0.00286774
  estimated relative force accuracy = 8.6361139e-06
  using single precision FFTW3
  3d grid and FFT values/proc = 14400 5070
Generated 1 of 1 mixed pair_coeff terms from arithmetic mixing rule
Last active /omp style is kspace_style pppm/omp
Per MPI rank memory allocation (min/avg/max) = 8.311 | 8.655 | 8.84 Mbytes
   Step         TotEng         Press           Temp            Dt      
         0  -7397.8918      283.84884      220            0.5          
      1000  -3371.8417      1615.4668      220.60374      0.5          
      2000  -2797.0238      1634.8613      198.19242      0.5          
      3000  -2369.6986     -261.94725      211.54374      0.5          
      4000  -2285.8351      188.37315      226.41104      0.5          
      5000  -2186.3575      317.14526      222.11886      0.5          
      6000  -1860.6713     -133.24939      215.1469       0.5          
      7000  -1738.3191     -260.08028      213.12119      0.5          
      8000  -1562.6384     -262.92232      216.11222      0.5          
      9000  -1230.949      -174.80777      222.77882      0.5          
     10000  -1024.4433     -202.93373      217.1186       0.5          
     11000  -798.62982     -254.4175       218.76225      0.5          
     12000  -780.79216     -305.9522       218.75388      0.5          
     13000  -616.91754     -440.99608      222.97167      0.5          
     14000  -640.72937     -56.314899      224.69089      0.5          
     15000  -613.39182      159.41538      220.98856      0.5          
     16000  -682.4728      -319.26171      219.67638      0.5          
     17000  -706.95366     -225.69967      221.48348      0.5          
     18000  -791.38254      101.36889      221.39818      0.5          
     19000  -814.02389      13.428697      218.13502      0.5          
     20000  -888.34982      5.8944565      220.14457      0.5          
     21000  -1075.5143     -149.38135      218.35566      0.5          
     22000  -1073.1743     -42.733092      219.75567      0.5          
     23000  -1131.6794      105.45004      216.87713      0.5          
     24000  -1089.8119      31.989295      216.50518      0.5          
     25000  -990.35306     -0.26799917     218.74417      0.5          
     26000  -949.13061      137.80883      218.88071      0.5          
     27000  -925.1612       175.2149       219.86626      0.5          
     28000  -951.46183     -99.420737      220.10538      0.5          
     29000  -892.18543     -143.91857      218.70374      0.5          
     30000  -984.26574      87.137238      216.77144      0.5          
     31000  -768.28835      205.10605      220.93865      0.5          
     32000  -918.45058     -318.28008      217.97168      0.5          
     33000  -945.74952     -154.4533       217.56617      0.5          
     34000  -780.62134      103.3496       223.61199      0.5          
     35000  -829.90859     -11.213112      220.67452      0.5          
     36000  -924.90865     -221.53691      215.20321      0.5          
     37000  -908.86602      88.602704      215.98129      0.5          
     38000  -791.95373      104.5565       219.72701      0.5          
     39000  -790.31983     -69.800335      219.59577      0.5          
     40000  -829.63036     -214.34069      218.60389      0.5          
     41000  -816.44012     -138.47741      222.00143      0.5          
     42000  -773.1837      -313.43732      223.40216      0.5          
     43000  -718.26964      77.385559      224.80309      0.5          
     44000  -846.482        289.68036      219.9207       0.5          
     45000  -836.78071     -92.072194      220.52725      0.5          
     46000  -786.80657     -314.4771       221.59604      0.5          
     47000  -729.80101      1.7017745      218.55535      0.5          
     48000  -769.12199      190.40633      220.90477      0.5          
     49000  -741.76976     -44.009776      221.41215      0.5          
     50000  -746.88733      216.11585      220.29588      0.5          
     51000  -858.59077     -65.498085      214.39679      0.5          
     52000  -817.40822     -170.72466      220.41049      0.5          
     53000  -814.57912     -237.02961      219.11307      0.5          
     54000  -749.28787      39.993594      221.278        0.5          
     55000  -925.16495     -154.83934      215.01778      0.5          
     56000  -863.2591       115.59126      218.55793      0.5          
     57000  -749.27665      90.637077      219.68168      0.5          
     58000  -718.06738     -4.5015303      222.85997      0.5          
     59000  -798.56508     -74.299466      217.08445      0.5          
     60000  -884.74941      2.9946378      216.96318      0.5          
     61000  -753.34395      32.24274       220.69368      0.5          
     62000  -775.97856     -212.32749      217.71073      0.5          
     63000  -831.63511     -74.483973      219.66149      0.5          
     64000  -654.93155      45.955926      222.18012      0.5          
     65000  -724.59262      97.28734       220.10024      0.5          
     66000  -828.28296     -114.14468      218.44582      0.5          
     67000  -891.76361     -178.72656      216.99615      0.5          
     68000  -886.1884       51.960214      216.26491      0.5          
     69000  -780.26023     -88.498296      219.31618      0.5          
     70000  -744.6614      -101.76466      220.51228      0.5          
     71000  -703.38505      127.33267      224.3686       0.5          
     72000  -754.16847     -34.780297      219.40201      0.5          
     73000  -799.28252     -210.68372      217.20934      0.5          
     74000  -661.3742       30.04107       224.90605      0.5          
     75000  -817.49376      29.844919      219.28339      0.5          
     76000  -857.61781      26.569353      216.03665      0.5          
     77000  -830.15307      58.601197      215.77628      0.5          
     78000  -743.49032      68.958118      219.74183      0.5          
     79000  -776.68782     -86.22574       217.65382      0.5          
     80000  -784.59499      22.412734      223.03385      0.5          
     81000  -802.11583      21.92694       217.5022       0.5          
     82000  -726.77948      204.61185      223.66358      0.5          
     83000  -759.50069      122.18244      218.64343      0.5          
     84000  -775.68431     -213.88022      219.69868      0.5          
     85000  -746.30143     -355.40845      220.43739      0.5          
     86000  -833.79293      29.393243      216.8949       0.5          
     87000  -678.83917     -13.51972       222.74427      0.5          
     88000  -704.66642     -337.70417      221.30221      0.5          
     89000  -693.44092     -13.064904      217.89857      0.5          
     90000  -720.92805      17.747643      219.93447      0.5          
     91000  -691.72236      50.473585      219.31248      0.5          
     92000  -674.33454      56.940234      221.87933      0.5          
     93000  -760.58927      75.142041      220.42864      0.5          
     94000  -772.26694     -101.34959      217.90707      0.5          
     95000  -785.92238     -158.87277      218.67272      0.5          
     96000  -825.56487     -134.73571      219.9789       0.5          
     97000  -714.39228     -133.52676      219.8227       0.5          
     98000  -661.78221      66.697146      222.3386       0.5          
     99000  -794.72403     -140.92012      219.24777      0.5          
    100000  -883.62678     -112.96501      217.53376      0.5          
    101000  -843.34695     -87.269451      223.84224      0.5          
    102000  -911.43973      133.43856      219.10659      0.5          
    103000  -764.6699       78.804291      222.02254      0.5          
    104000  -783.55247     -259.2535       221.29199      0.5          
    105000  -814.91032     -10.506739      219.16953      0.5          
    106000  -841.89596      73.662373      217.1206       0.5          
    107000  -809.10945     -22.790085      220.86769      0.5          
    108000  -716.89623      76.226255      221.34716      0.5          
    109000  -798.36838      60.316823      219.22615      0.5          
    110000  -777.38662     -166.83661      219.55059      0.5          
    111000  -728.01696     -111.04682      220.11613      0.5          
    112000  -797.0307       57.922609      221.2558       0.5          
    113000  -915.88738     -336.75714      217.50582      0.5          
    114000  -653.31506     -7.969186       220.09423      0.5          
    115000  -760.81371      103.24193      222.16192      0.5          
    116000  -727.02752     -99.057843      220.33108      0.5          
    117000  -690.74462     -3.7024062      222.07016      0.5          
    118000  -833.56471     -65.247791      218.99843      0.5          
    119000  -785.96556     -208.96736      220.4512       0.5          
    120000  -734.12676      70.374296      224.12832      0.5          
    121000  -765.95931     -31.434885      221.04078      0.5          
    122000  -806.55597      50.653676      220.16448      0.5          
    123000  -618.3878       309.93526      222.61103      0.5          
    124000  -769.07434     -104.7868       221.05524      0.5          
    125000  -788.28722     -373.29432      219.9487       0.5          
    126000  -783.88148     -124.16273      218.90473      0.5          
    127000  -837.02035      97.28885       218.93302      0.5          
    128000  -737.65804      160.39975      218.82966      0.5          
    129000  -870.16717     -127.07867      218.20912      0.5          
    130000  -669.29247      7.1267001      224.08679      0.5          
    131000  -639.59973      100.34254      228.30234      0.5          
    132000  -845.90706     -190.70414      218.92156      0.5          
    133000  -895.52176     -10.806702      220.01748      0.5          
    134000  -988.24728     -66.625625      217.46441      0.5          
    135000  -898.81539      176.34146      218.32864      0.5          
    136000  -779.51637     -68.350491      223.39733      0.5          
    137000  -778.45025      54.20686       219.92059      0.5          
    138000  -844.73206      82.392809      220.69575      0.5          
    139000  -748.16289     -82.835403      221.8543       0.5          
    140000  -677.18545     -227.38428      223.01416      0.5          
    141000  -762.77836     -140.68275      220.44819      0.5          
    142000  -813.46895      68.933836      221.64282      0.5          
    143000  -878.53651     -60.603821      217.78062      0.5          
    144000  -676.70859      177.9454       220.69579      0.5          
    145000  -835.41728     -1.209095       217.88802      0.5          
    146000  -828.18192     -200.03728      220.06176      0.5          
    147000  -796.72961     -248.89392      223.01255      0.5          
    148000  -756.44516     -118.36625      223.62017      0.5          
    149000  -741.90828      218.21577      224.60088      0.5          
    150000  -925.20803     -186.67751      221.11437      0.5          
    151000  -883.57087      284.59316      225.32249      0.5          
    152000  -1012.5672      7.0845032      221.82802      0.5          
    153000  -1168.6889     -372.13863      219.59066      0.5          
    154000  -1188.0471      296.7918       218.0112       0.5          
    155000  -1224.992       43.800937      220.69224      0.5          
    156000  -1264.657      -11.62067       219.06555      0.5          
    157000  -1330.9073      171.0529       218.5446       0.5          
    158000  -1244.0546      341.2489       223.57311      0.5          
    159000  -1368.4003      46.627661      219.68245      0.5          
    160000  -1369.7708      112.37182      217.98056      0.5          
    161000  -1334.8272      210.88765      217.18681      0.5          
    162000  -1218.8361      174.44284      222.87838      0.5          
    163000  -1222.6523      29.741679      220.69311      0.5          
    164000  -1167.3408     -41.650044      221.93421      0.5          
    165000  -1173.9485      258.34778      222.67395      0.5          
    166000  -1149.7366     -31.603331      220.21326      0.5          
    167000  -1227.6265      250.95541      218.67673      0.5          
    168000  -1145.949      -12.802631      219.61895      0.5          
    169000  -966.62757     -229.09842      222.81979      0.5          
    170000  -1034.9002      257.21585      219.93562      0.5          
    171000  -998.54798     -53.198615      220.99893      0.5          
    172000  -934.59474     -146.6159       222.09109      0.5          
    173000  -922.89567      162.86861      219.27091      0.5          
    174000  -847.33824     -271.14176      218.27013      0.5          
    175000  -785.26679     -184.89967      222.96041      0.5          
    176000  -765.40365     -276.75893      219.26452      0.5          
    177000  -792.40138     -158.82987      220.15795      0.5          
    178000  -824.75493     -145.69439      221.26155      0.5          
    179000  -728.31909     -402.82121      220.20855      0.5          
    180000  -774.71169     -65.440655      216.06564      0.5          
    181000  -731.0738       127.07528      220.2036       0.5          
    182000  -763.07579     -349.94214      220.51605      0.5          
    183000  -782.38828     -106.49376      219.52308      0.5          
    184000  -797.42363      59.259758      222.0246       0.5          
    185000  -770.56437     -22.706696      222.04927      0.5          
    186000  -751.42328     -92.839448      222.35037      0.5          
    187000  -887.55043     -64.31228       219.48095      0.5          
    188000  -819.89369     -191.80412      221.24159      0.5          
    189000  -928.52915      165.4113       220.93138      0.5          
    190000  -985.81451     -50.762858      216.56206      0.5          
    191000  -1032.3614     -203.41645      220.27866      0.5          
    192000  -993.8755      -85.999134      218.75866      0.5          
    193000  -908.66103      53.723156      222.80305      0.5          
    194000  -897.12355      104.88483      224.95073      0.5          
    195000  -1063.8337      105.56248      219.03477      0.5          
    196000  -1086.9564      118.35946      221.85983      0.5          
    197000  -1105.9133     -192.47852      218.00877      0.5          
    198000  -1102.561       124.29642      221.71963      0.5          
    199000  -1158.9537      190.71177      218.22947      0.5          
    200000  -1134.3331     -2.9987286      222.9458       0.5          
    201000  -1188.7466     -14.981398      220.46342      0.5          
    202000  -1178.0161      79.267374      221.40746      0.5          
    203000  -1138.3547     -46.78072       218.05619      0.5          
    204000  -1145.4615     -14.589753      219.9475       0.5          
    205000  -1048.322       226.60174      221.53449      0.5          
    206000  -1012.4452      87.916466      222.42935      0.5          
    207000  -1136.3222     -208.33459      217.37         0.5          
    208000  -1046.2621     -62.654174      220.39275      0.5          
    209000  -1053.2478      219.88143      216.90324      0.5          
    210000  -988.70164     -132.15242      220.5054       0.5          
    211000  -1015.8257     -98.131874      218.37043      0.5          
    212000  -880.25852     -127.11422      219.86699      0.5          
    213000  -854.30609     -67.709943      219.40759      0.5          
    214000  -969.41766     -138.4883       215.34507      0.5          
    215000  -811.02648     -243.17892      220.65268      0.5          
    216000  -846.69498      16.769695      218.30788      0.5          
    217000  -803.95307     -69.510928      221.88678      0.5          
    218000  -794.56522      154.48037      221.39597      0.5          
    219000  -959.09502     -36.73005       217.31146      0.5          
    220000  -812.23104     -109.65149      219.08772      0.5          
    221000  -826.49392      164.76126      220.4921       0.5          
    222000  -876.67314     -195.89535      220.74603      0.5          
    223000  -800.66242     -215.20898      220.87338      0.5          
    224000  -825.14149     -65.216528      216.65596      0.5          
    225000  -825.59087     -46.033653      221.65442      0.5          
    226000  -855.1298       132.82767      217.76011      0.5          
    227000  -838.117        87.292926      221.34048      0.5          
    228000  -1014.0484      137.99085      216.06322      0.5          
    229000  -949.01002     -136.69452      221.10932      0.5          
    230000  -941.06774     -114.81508      220.19076      0.5          
    231000  -986.30685      68.498643      219.67641      0.5          
    232000  -937.41346     -22.363407      224.496        0.5          
    233000  -1009.2211     -0.56232641     219.61705      0.5          
    234000  -1072.1243      129.22498      217.76643      0.5          
    235000  -1010.8647      192.61399      221.74154      0.5          
    236000  -992.44444      13.815588      220.32682      0.5          
    237000  -1092.8072     -247.77287      218.70789      0.5          
    238000  -1069.2421      106.11114      220.43695      0.5          
    239000  -1096.6005      176.77971      220.24233      0.5          
    240000  -971.26588      150.49689      222.98396      0.5          
    241000  -984.14082      7.1778902      221.26088      0.5          
    242000  -1085.8764      175.56799      218.17198      0.5          
    243000  -1004.7992      125.28499      219.75606      0.5          
    244000  -967.54201      14.187875      222.11555      0.5          
    245000  -968.44125     -192.0151       224.40737      0.5          
    246000  -1112.6541      39.742433      218.97889      0.5          
    247000  -993.20627     -82.922073      220.11025      0.5          
    248000  -1032.1031     -38.673417      218.5065       0.5          
    249000  -985.17271      82.977825      220.64219      0.5          
    250000  -951.46298     -78.183368      220.53153      0.5          
    251000  -1039.0049     -73.693215      215.42178      0.5          
    252000  -1015.6997     -237.57935      217.13155      0.5          
    253000  -964.68731     -38.557015      220.75988      0.5          
    254000  -909.39757     -13.92727       222.09558      0.5          
    255000  -1020.7427     -6.0360865      220.00271      0.5          
    256000  -898.15805      38.081408      221.53465      0.5          
    257000  -806.64036      131.76009      225.00945      0.5          
    258000  -881.1983       25.748537      220.06938      0.5          
    259000  -945.00661     -245.49198      222.65019      0.5          
    260000  -968.79771     -147.58067      218.65516      0.5          
    261000  -951.13776      124.82513      217.4742       0.5          
    262000  -875.45975      200.40554      221.02953      0.5          
    263000  -785.14219     -127.49889      220.38323      0.5          
    264000  -779.73256     -115.12014      221.06273      0.5          
    265000  -844.73297      17.135335      218.96651      0.5          
    266000  -946.9095       180.59058      215.54015      0.5          
    267000  -887.53953      85.6225        219.96953      0.5          
    268000  -840.7546       100.38536      219.4433       0.5          
    269000  -847.71061      33.039432      222.94524      0.5          
    270000  -878.49837     -259.42666      222.96604      0.5          
    271000  -786.72409     -80.533837      223.99673      0.5          
    272000  -889.09114      46.000774      216.97421      0.5          
    273000  -959.8203      -349.86143      219.43194      0.5          
    274000  -965.5163      -13.78708       218.06007      0.5          
    275000  -886.84733      107.15779      221.09883      0.5          
    276000  -984.49712      143.89551      218.5108       0.5          
    277000  -806.46693      83.555477      223.95538      0.5          
    278000  -919.33015     -106.55472      220.23839      0.5          
    279000  -901.46962      87.014962      219.88642      0.5          
    280000  -1042.3067      157.57762      216.71359      0.5          
    281000  -992.44014      100.48566      222.09676      0.5          
    282000  -1140.8298     -318.15766      218.05853      0.5          
    283000  -955.30238     -345.01896      220.39391      0.5          
    284000  -1051.111       145.72299      218.49927      0.5          
    285000  -900.6448       276.70552      221.99885      0.5          
    286000  -1048.2785     -176.68845      219.8075       0.5          
    287000  -890.14        -213.91216      224.50178      0.5          
    288000  -935.14765     -115.34425      220.85644      0.5          
    289000  -1003.855      -176.57854      219.73721      0.5          
    290000  -1122.8635      56.134474      221.36544      0.5          
    291000  -975.06355     -182.78598      221.10087      0.5          
    292000  -1008.235      -196.74681      219.76512      0.5          
    293000  -1002.356       202.85286      219.08021      0.5          
    294000  -1132.4857     -10.406003      219.21941      0.5          
    295000  -989.39701     -341.09945      218.21478      0.5          
    296000  -942.74911     -82.866037      219.53111      0.5          
    297000  -1015.2455      19.120294      215.56493      0.5          
    298000  -931.01035      11.239024      219.59729      0.5          
    299000  -973.78328     -278.29008      217.27557      0.5          
    300000  -794.61623      187.62569      222.90512      0.5          
    301000  -993.51959     -47.022403      217.4537       0.5          
    302000  -885.4873      -143.02921      220.81797      0.5          
    303000  -933.16974      169.99127      219.41196      0.5          
    304000  -913.83825     -61.269448      219.02471      0.5          
    305000  -881.68735     -351.01514      219.37464      0.5          
    306000  -907.55635      39.862492      219.39768      0.5          
    307000  -930.13764     -9.8637131      218.3704       0.5          
    308000  -965.84263      87.439843      219.03107      0.5          
    309000  -893.8411       36.301663      219.49867      0.5          
    310000  -868.59997     -75.303383      221.20209      0.5          
    311000  -956.67477     -159.18096      220.30205      0.5          
    312000  -864.99361     -295.65009      221.01924      0.5          
    313000  -889.12975      137.79268      222.9004       0.5          
    314000  -858.54797     -36.49979       220.85998      0.5          
    315000  -757.8357       96.506374      223.63489      0.5          
    316000  -864.92751      160.39989      222.83976      0.5          
    317000  -769.48475     -108.65235      223.52349      0.5          
    318000  -867.67631      70.316555      221.97915      0.5          
    319000  -885.7558       173.78861      219.26568      0.5          
    320000  -870.94859      0.84020605     221.883        0.5          
    321000  -963.707        230.59255      220.59934      0.5          
    322000  -956.31618      83.3182        219.64732      0.5          
    323000  -986.7363      -220.07814      217.14402      0.5          
    324000  -888.68927      345.67181      220.8915       0.5          
    325000  -1009.3197      103.55991      218.34593      0.5          
    326000  -1017.3708     -381.6          217.5596       0.5          
    327000  -958.91974     -27.632352      216.68379      0.5          
    328000  -843.57553      43.725889      221.96049      0.5          
    329000  -888.77112     -199.14526      219.43878      0.5          
    330000  -874.94797      7.2246061      219.99079      0.5          
    331000  -807.2405       146.91189      222.85439      0.5          
    332000  -1024.6727     -281.34019      217.88961      0.5          
    333000  -1049.6308      102.04928      218.12042      0.5          
    334000  -965.54627     -57.759831      219.72389      0.5          
    335000  -974.28065     -29.434526      220.88144      0.5          
    336000  -908.31717     -98.760478      222.01565      0.5          
    337000  -960.64989      113.47099      219.6814       0.5          
    338000  -1012.179       106.21017      218.30153      0.5          
    339000  -855.81925     -10.214487      222.36852      0.5          
    340000  -924.62161     -30.852994      221.43906      0.5          
    341000  -919.48469      175.74425      221.4457       0.5          
    342000  -985.27944      90.102973      219.26794      0.5          
    343000  -1001.1755      20.68739       219.43585      0.5          
    344000  -1079.8195      76.409678      217.7168       0.5          
    345000  -937.15067      85.832299      220.07043      0.5          
    346000  -911.14722      85.899564      224.51187      0.5          
    347000  -991.20743     -46.727975      220.89589      0.5          
    348000  -1004.5584     -106.90953      217.13117      0.5          
    349000  -1025.5935     -132.21213      216.67564      0.5          
    350000  -939.06875      293.37109      218.71302      0.5          
    351000  -986.6521       40.023176      217.12536      0.5          
    352000  -1002.7174     -450.24431      216.69286      0.5          
    353000  -916.35792      166.50685      223.28012      0.5          
    354000  -758.22908      102.84611      224.56067      0.5          
    355000  -822.60547      59.38081       222.87897      0.5          
    356000  -884.84891     -326.87448      223.41552      0.5          
    357000  -873.31634      209.33221      222.9851       0.5          
    358000  -972.49746      13.967008      221.36952      0.5          
    359000  -928.33225     -42.980461      219.24416      0.5          
    360000  -901.09249      263.78667      221.33424      0.5          
    361000  -933.56683     -206.44845      220.93384      0.5          
    362000  -835.72595     -144.72347      220.91706      0.5          
    363000  -892.23257      204.89381      222.17097      0.5          
    364000  -878.02109      249.17667      220.82931      0.5          
    365000  -940.24912     -148.52294      219.92333      0.5          
    366000  -942.25663     -180.07892      221.80603      0.5          
    367000  -1019.5125     -157.91937      216.39758      0.5          
    368000  -1037.5978      21.40938       217.92377      0.5          
    369000  -926.85884      135.44139      218.00942      0.5          
    370000  -883.80985     -119.35812      220.49389      0.5          
    371000  -801.16429     -33.038214      223.01147      0.5          
    372000  -967.74847     -49.845528      219.97225      0.5          
    373000  -929.85869     -308.08848      221.16773      0.5          
    374000  -962.23189     -9.7118057      216.2328       0.5          
    375000  -871.47738      32.970091      220.736        0.5          
    376000  -882.64772     -7.7083165      222.0486       0.5          
    377000  -893.67908     -72.899777      221.43325      0.5          
    378000  -1006.9424     -195.78297      220.83784      0.5          
    379000  -973.23071      52.166226      218.00973      0.5          
    380000  -948.5739       3.8117036      221.38374      0.5          
    381000  -932.56846      14.826678      225.7585       0.5          
    382000  -1097.1218      303.62618      218.52515      0.5          
    383000  -1019.6722      38.250818      219.36888      0.5          
    384000  -1033.5877     -202.16284      220.9967       0.5          
    385000  -1052.6879     -164.95053      218.44281      0.5          
    386000  -933.57426      159.8185       221.39502      0.5          
    387000  -894.18112     -33.978832      221.38779      0.5          
    388000  -1012.8217     -234.4547       221.22726      0.5          
    389000  -994.55636     -36.299006      220.23805      0.5          
    390000  -993.25242      49.061264      219.01729      0.5          
    391000  -853.88405      94.527694      221.72296      0.5          
    392000  -913.26534     -54.633444      219.30786      0.5          
    393000  -854.80454      57.622422      220.46102      0.5          
    394000  -962.30249      248.21337      219.23745      0.5          
    395000  -817.03869     -26.812256      222.5671       0.5          
    396000  -962.43391     -102.74576      216.89492      0.5          
    397000  -816.83585      287.04143      223.85682      0.5          
    398000  -953.1652      -189.91227      217.8618       0.5          
    399000  -919.67229     -231.68882      216.94614      0.5          
    400000  -699.05573      40.254722      223.46908      0.5          
    401000  -826.69812      238.8878       218.6092       0.5          
    402000  -937.32767      5.9846757      217.51565      0.5          
    403000  -900.01683     -229.64918      219.26486      0.5          
    404000  -870.87501      59.882246      218.76567      0.5          
    405000  -890.48805      141.14597      219.81733      0.5          
    406000  -888.6196      -369.21055      220.0257       0.5          
    407000  -827.44027     -365.30425      219.30586      0.5          
    408000  -776.61266     -120.13026      218.73408      0.5          
    409000  -867.8915       130.71511      219.59497      0.5          
    410000  -818.00445      56.628227      217.63101      0.5          
    411000  -889.4895      -150.654        218.35037      0.5          
    412000  -811.18044     -146.67001      221.99126      0.5          
    413000  -804.38182      143.39969      221.8801       0.5          
    414000  -811.29281     -44.741751      222.3304       0.5          
    415000  -963.90054     -319.72832      217.80213      0.5          
    416000  -939.73664     -193.03873      217.77935      0.5          
    417000  -920.3818       72.669101      219.51487      0.5          
    418000  -951.98239      170.91916      220.5357       0.5          
    419000  -961.24289     -92.895952      219.16253      0.5          
    420000  -930.36669     -19.540624      220.63667      0.5          
    421000  -981.87819      250.42862      219.47747      0.5          
    422000  -934.1793      -206.58134      220.61299      0.5          
    423000  -862.72963     -103.36912      222.34849      0.5          
    424000  -823.901       -80.681346      221.94994      0.5          
    425000  -826.04021      159.70714      223.63557      0.5          
    426000  -845.4726      -78.674198      219.73315      0.5          
    427000  -801.48823     -44.297555      220.41445      0.5          
    428000  -925.43563     -186.9953       217.89445      0.5          
    429000  -815.67967     -48.29871       221.07208      0.5          
    430000  -824.71316      122.49794      221.85221      0.5          
    431000  -848.45018     -185.9448       221.87442      0.5          
    432000  -973.95865     -237.38256      219.96097      0.5          
    433000  -867.19303     -36.827487      219.72433      0.5          
    434000  -874.96943     -91.736319      216.58747      0.5          
    435000  -878.23941     -263.13234      219.86353      0.5          
    436000  -762.14273     -83.708376      223.31426      0.5          
    437000  -805.35342      577.4726       219.76573      0.5          
    438000  -843.13553      216.22201      218.86853      0.5          
    439000  -890.04501     -323.04767      218.81734      0.5          
    440000  -902.63914     -265.13561      218.56787      0.5          
    441000  -873.8696       0.90169267     220.75633      0.5          
    442000  -851.71662      7.9077075      222.12427      0.5          
    443000  -874.79854     -63.105068      222.15716      0.5          
    444000  -774.30974     -50.220486      224.59951      0.5          
    445000  -972.62257     -208.54315      217.82079      0.5          
    446000  -1002.9022     -30.290918      220.55562      0.5          
    447000  -861.47546      217.42579      220.11246      0.5          
    448000  -1007.596       31.802128      218.9315       0.5          
    449000  -959.17775      131.51999      217.74914      0.5          
    450000  -964.95265     -124.58733      217.78038      0.5          
    451000  -1025.5122     -234.79979      217.23035      0.5          
    452000  -791.42713     -40.66944       222.87403      0.5          
    453000  -808.13442      65.279849      220.81832      0.5          
    454000  -915.58239     -153.76034      219.30445      0.5          
    455000  -867.74032     -0.34623128     218.26904      0.5          
    456000  -877.68783     -44.28744       220.54109      0.5          
    457000  -868.75976      61.111331      222.75539      0.5          
    458000  -901.98788      100.09547      221.44268      0.5          
    459000  -971.9276       44.304947      219.06702      0.5          
    460000  -901.24753     -24.499458      220.90739      0.5          
    461000  -913.28063      75.761527      221.18833      0.5          
    462000  -939.26539     -48.791073      217.70513      0.5          
    463000  -801.22946     -179.89738      221.19168      0.5          
    464000  -904.63408     -96.41026       219.71318      0.5          
    465000  -860.53199     -94.921923      221.87903      0.5          
    466000  -898.76363      93.714679      220.96425      0.5          
    467000  -823.37513      126.07805      220.4903       0.5          
    468000  -891.36538     -220.06014      218.0747       0.5          
    469000  -868.88686     -41.12931       221.96661      0.5          
    470000  -784.80187     -55.352593      221.01039      0.5          
    471000  -798.21699      99.503583      220.78233      0.5          
    472000  -925.14691      157.92278      218.93941      0.5          
    473000  -987.93494      7.9697356      215.12349      0.5          
    474000  -778.62177     -84.959463      222.28208      0.5          
    475000  -787.09894     -141.63073      221.51406      0.5          
    476000  -791.79091      176.19139      222.79477      0.5          
    477000  -805.84062      227.99314      221.77571      0.5          
    478000  -789.17959     -110.66348      222.03446      0.5          
    479000  -847.12656      123.74594      221.89379      0.5          
    480000  -826.01646      38.649612      220.85302      0.5          
    481000  -860.67249     -121.25381      219.66373      0.5          
    482000  -779.61163     -62.85868       221.81876      0.5          
    483000  -875.13793      119.85904      219.04964      0.5          
    484000  -904.97191      174.75371      219.30294      0.5          
    485000  -915.65363     -112.40897      218.68199      0.5          
    486000  -840.34678     -93.733289      221.48867      0.5          
    487000  -830.04844      22.270102      221.12937      0.5          
    488000  -861.24945     -175.21842      224.30266      0.5          
    489000  -979.83801     -158.88306      220.2          0.5          
    490000  -1050.2674     -190.19104      215.20711      0.5          
    491000  -985.18616      302.21113      219.52408      0.5          
    492000  -985.5118      -128.02374      219.03849      0.5          
    493000  -980.60524     -248.07751      220.66692      0.5          
    494000  -899.13673      96.789857      220.39867      0.5          
    495000  -1072.3053     -194.0399       216.01215      0.5          
    496000  -989.51711     -217.7326       218.7628       0.5          
    497000  -861.24886      114.56508      222.65977      0.5          
    498000  -862.99289      15.828205      219.67924      0.5          
    499000  -840.85709      66.907655      223.00143      0.5          
    500000  -859.17848      44.815513      220.06811      0.5          
    501000  -946.28807      60.256516      217.87805      0.5          
    502000  -969.21164      143.43814      218.53978      0.5          
    503000  -863.15591     -16.277453      221.2618       0.5          
    504000  -968.2781      -150.07018      220.70381      0.5          
    505000  -899.29183      280.53343      219.75268      0.5          
    506000  -753.36516      122.74553      221.41082      0.5          
    507000  -832.42061     -169.72096      220.98821      0.5          
    508000  -889.75891      176.29857      221.55229      0.5          
    509000  -937.8387      -170.80219      216.56669      0.5          
    510000  -1041.5703     -102.00443      214.00756      0.5          
    511000  -962.85561      132.7221       219.40637      0.5          
    512000  -821.92924      113.65425      222.95618      0.5          
    513000  -867.23255     -302.23133      218.49141      0.5          
    514000  -982.2366       68.813407      216.90026      0.5          
    515000  -967.54117     -87.720783      218.48939      0.5          
    516000  -913.8829      -59.738016      217.07819      0.5          
    517000  -800.2166       148.22656      220.50161      0.5          
    518000  -895.0015      -269.05884      217.7745       0.5          
    519000  -863.20399     -182.07112      219.67239      0.5          
    520000  -923.18628      117.62938      216.3976       0.5          
    521000  -732.99436      90.294936      227.01768      0.5          
    522000  -850.41649     -36.796198      220.96311      0.5          
    523000  -856.76199      17.548669      218.80783      0.5          
    524000  -999.85246     -152.78215      214.3795       0.5          
    525000  -892.67074     -17.759512      221.01105      0.5          
    526000  -936.86513      2.922241       219.2816       0.5          
    527000  -846.46005     -307.53473      218.74039      0.5          
    528000  -943.90844     -32.601548      219.67533      0.5          
    529000  -960.94548      298.85102      217.75046      0.5          
    530000  -932.88354      215.95389      215.93967      0.5          
    531000  -884.36938      14.048124      221.15096      0.5          
    532000  -945.61753     -103.17185      220.80842      0.5          
    533000  -891.66247      61.345048      220.90468      0.5          
    534000  -943.53023      208.53106      221.30391      0.5          
    535000  -963.0702       107.12507      220.43261      0.5          
    536000  -962.60223     -0.79625506     218.69716      0.5          
    537000  -908.40504     -138.69753      222.32717      0.5          
    538000  -840.44336      1.7375595      221.89967      0.5          
    539000  -905.92578      293.70992      219.60457      0.5          
    540000  -910.99048     -333.24807      219.68555      0.5          
    541000  -871.33043     -228.92075      221.3412       0.5          
    542000  -888.39987      346.24699      218.12873      0.5          
    543000  -778.90033      460.0198       222.18118      0.5          
    544000  -904.81455     -183.21337      218.42274      0.5          
    545000  -782.70941     -40.967095      225.51846      0.5          
    546000  -813.90051      55.738636      221.22366      0.5          
    547000  -882.20053     -176.25822      220.48684      0.5          
    548000  -920.231        109.25752      219.67112      0.5          
    549000  -853.13458      78.461072      219.72152      0.5          
    550000  -888.97795     -211.43575      218.54445      0.5          
    551000  -925.35976     -206.2352       217.94331      0.5          
    552000  -797.07981     -40.874013      222.0306       0.5          
    553000  -764.17232      85.463654      220.74214      0.5          
    554000  -755.18185      93.401643      220.66788      0.5          
    555000  -805.70357      97.285055      219.18384      0.5          
    556000  -944.58645      21.646046      217.05577      0.5          
    557000  -926.73323     -186.25381      215.35272      0.5          
    558000  -853.16421     -170.03008      219.61861      0.5          
    559000  -811.71039     -127.53005      220.35853      0.5          
    560000  -883.91751     -63.266683      219.16937      0.5          
    561000  -822.15915      61.797821      223.16997      0.5          
    562000  -853.20399     -72.469391      218.68891      0.5          
    563000  -797.36195      134.04459      223.2566       0.5          
    564000  -754.89411     -168.2188       219.60517      0.5          
    565000  -743.44551      126.86984      222.17604      0.5          
    566000  -727.07151      7.7771293      224.10478      0.5          
    567000  -916.3991       80.876911      217.14224      0.5          
    568000  -834.32843     -61.715468      218.57783      0.5          
    569000  -785.00687      90.390744      225.52359      0.5          
    570000  -788.18607     -82.05558       220.23327      0.5          
    571000  -845.78592     -74.615322      218.82817      0.5          
    572000  -882.54814      185.7054       220.10354      0.5          
    573000  -795.39643      230.88566      220.77358      0.5          
    574000  -869.91251     -173.48856      221.65777      0.5          
    575000  -888.113       -27.252313      221.98446      0.5          
    576000  -909.81437     -52.388958      219.12231      0.5          
    577000  -958.95833      154.51079      219.93676      0.5          
    578000  -921.53182      181.28217      219.74246      0.5          
    579000  -1024.8379      95.265103      218.3534       0.5          
    580000  -1068.5692     -6.9232434      217.7203       0.5          
    581000  -952.79644     -71.425747      219.02339      0.5          
    582000  -921.70376     -17.523705      218.63504      0.5          
    583000  -935.3361      -54.655859      217.01118      0.5          
    584000  -980.72758     -237.45297      219.88686      0.5          
    585000  -861.64213     -303.18088      225.40331      0.5          
    586000  -967.57352     -152.09381      218.17734      0.5          
    587000  -901.10883      229.98666      218.8479       0.5          
    588000  -938.69506     -112.81825      218.92493      0.5          
    589000  -868.94577     -150.97576      221.43187      0.5          
    590000  -988.67203      155.23334      216.24974      0.5          
    591000  -884.67771     -39.140547      221.88427      0.5          
    592000  -869.13143     -222.01087      221.56583      0.5          
    593000  -780.76986      81.275403      219.92568      0.5          
    594000  -889.6224       51.224478      217.7963       0.5          
    595000  -758.14763      196.89633      221.16999      0.5          
    596000  -784.85984      108.10479      220.99209      0.5          
    597000  -882.04779     -184.11774      218.02793      0.5          
    598000  -928.75978     -95.239376      219.47912      0.5          
    599000  -757.19515      201.08756      223.49317      0.5          
    600000  -878.55878     -48.104642      220.37896      0.5          
    601000  -917.8622      -72.465989      217.31684      0.5          
    602000  -787.41231      116.41951      220.46232      0.5          
    603000  -951.7149      -116.12307      215.31749      0.5          
    604000  -936.43696     -130.60195      221.10614      0.5          
    605000  -816.30353      104.77464      220.64522      0.5          
    606000  -809.85371     -78.370255      223.32383      0.5          
    607000  -846.48226     -58.848948      221.06951      0.5          
    608000  -920.54979      108.13197      217.3593       0.5          
    609000  -1010.2614      82.024213      221.16223      0.5          
    610000  -965.66425     -77.73389       216.47026      0.5          
    611000  -969.60894      104.02723      216.51638      0.5          
    612000  -935.08003      348.13703      223.0921       0.5          
    613000  -977.14439     -41.735012      217.80613      0.5          
    614000  -939.7152      -90.460511      222.13601      0.5          
    615000  -921.13276      94.428612      220.9694       0.5          
    616000  -965.46931      96.07707       221.01599      0.5          
    617000  -968.10105      101.0491       218.78968      0.5          
    618000  -951.84016     -55.112463      221.44374      0.5          
    619000  -995.00222      182.59016      216.0563       0.5          
    620000  -925.8285       126.50373      221.61144      0.5          
    621000  -904.97383     -79.061682      221.73519      0.5          
    622000  -878.3621      -194.94579      222.93753      0.5          
    623000  -980.02579     -81.438019      219.93151      0.5          
    624000  -898.70518     -21.648443      222.75436      0.5          
    625000  -944.19773     -68.417231      217.81773      0.5          
    626000  -808.92165      179.69746      221.29151      0.5          
    627000  -861.45299      21.9312        220.0647       0.5          
    628000  -858.5111      -87.239215      220.2313       0.5          
    629000  -890.13187      15.434645      220.64676      0.5          
    630000  -799.91188     -118.10243      221.0666       0.5          
    631000  -766.84555     -243.47194      221.90353      0.5          
    632000  -885.23173      108.21492      215.51313      0.5          
    633000  -835.32302      291.16438      218.84882      0.5          
    634000  -790.78105     -85.419134      222.64497      0.5          
    635000  -788.13091     -319.30838      218.09286      0.5          
    636000  -956.07296     -96.150853      216.53609      0.5          
    637000  -735.9773      -142.56974      223.38716      0.5          
    638000  -806.2064       129.76895      222.37909      0.5          
    639000  -853.86228     -244.2626       220.44781      0.5          
    640000  -902.48946     -61.825294      219.89487      0.5          
    641000  -735.39481      224.08021      221.36989      0.5          
    642000  -737.97008      253.251        224.67912      0.5          
    643000  -834.86018     -404.45795      221.44997      0.5          
    644000  -891.90288     -149.54018      222.04157      0.5          
    645000  -793.55636     -17.451415      222.15109      0.5          
    646000  -817.54882      18.11856       222.6359       0.5          
    647000  -780.89487      330.86426      222.61817      0.5          
    648000  -976.3137       143.48371      217.56073      0.5          
    649000  -830.17919     -76.883063      224.28598      0.5          
    650000  -844.17583     -250.47772      218.25901      0.5          
    651000  -926.86773      175.1062       218.78541      0.5          
    652000  -810.60979      183.73681      220.22572      0.5          
    653000  -961.53472     -66.114128      216.94481      0.5          
    654000  -897.57504      46.630206      220.4911       0.5          
    655000  -905.49324     -212.63114      219.20314      0.5          
    656000  -817.51364      132.86736      222.64657      0.5          
    657000  -881.83815      144.30955      217.0219       0.5          
    658000  -887.18446     -300.34605      220.1111       0.5          
    659000  -835.13754     -164.46052      219.67134      0.5          
    660000  -850.19251      190.85605      218.77593      0.5          
    661000  -713.65449      30.381764      222.54823      0.5          
    662000  -857.18118      28.474967      220.78643      0.5          
    663000  -809.69508     -17.398792      220.23611      0.5          
    664000  -820.8924       141.11458      219.82518      0.5          
    665000  -790.47074      41.261881      218.3861       0.5          
    666000  -857.64567      5.667963       215.53296      0.5          
    667000  -722.48054     -14.428123      224.09057      0.5          
    668000  -877.69332     -153.74792      222.55998      0.5          
    669000  -861.2461      -93.679276      219.16209      0.5          
    670000  -810.10004     -18.648709      222.04271      0.5          
    671000  -890.87182     -151.06063      219.86602      0.5          
    672000  -870.00389      246.07453      220.40752      0.5          
    673000  -945.83403      122.81133      219.04975      0.5          
    674000  -806.69096     -112.12423      221.87284      0.5          
    675000  -931.11777     -323.15532      218.10584      0.5          
    676000  -932.18507      175.32192      217.28683      0.5          
    677000  -952.11538      40.326421      217.92332      0.5          
    678000  -857.63087      20.990689      221.41398      0.5          
    679000  -924.14895      199.97976      215.67397      0.5          
    680000  -861.70536      15.784179      220.99733      0.5          
    681000  -948.94215      22.462466      219.44799      0.5          
    682000  -924.02309      185.11447      221.97083      0.5          
    683000  -972.70394     -35.64986       217.21356      0.5          
    684000  -1038.4986      30.93632       215.66676      0.5          
    685000  -868.41224      19.656769      220.97461      0.5          
    686000  -949.62159      165.5418       220.9001       0.5          
    687000  -937.50446      48.791721      219.33352      0.5          
    688000  -931.44064     -140.17102      215.78908      0.5          
    689000  -826.8404       150.12851      223.64228      0.5          
    690000  -813.54216      123.0156       221.90251      0.5          
    691000  -869.09493     -4.0329655      218.82911      0.5          
    692000  -1023.7109      14.073883      216.93231      0.5          
    693000  -873.73889     -155.05324      218.9349       0.5          
    694000  -856.23178      165.69043      220.90562      0.5          
    695000  -897.06563     -137.06018      218.79704      0.5          
    696000  -725.07591      54.850609      224.3945       0.5          
    697000  -775.58365     -91.577189      222.38561      0.5          
    698000  -841.51284     -193.75639      219.27309      0.5          
    699000  -767.17005     -158.83334      220.54298      0.5          
    700000  -882.46111     -54.016561      218.47357      0.5          
    701000  -800.49198      120.14462      218.66305      0.5          
    702000  -803.37769     -36.788272      223.13917      0.5          
    703000  -779.46283      92.159674      219.49408      0.5          
    704000  -786.783        196.58327      223.26311      0.5          
    705000  -871.85049     -98.751057      216.24955      0.5          
    706000  -814.76493     -54.05663       221.86244      0.5          
    707000  -879.42265     -253.27586      217.50653      0.5          
    708000  -812.20883      57.882038      219.39618      0.5          
    709000  -813.26312      194.74971      219.45059      0.5          
    710000  -771.51071     -41.981964      221.40429      0.5          
    711000  -738.36816     -5.9092459      223.19234      0.5          
    712000  -809.26981      74.479898      223.58465      0.5          
    713000  -876.26712     -94.172596      218.28233      0.5          
    714000  -795.03941     -76.819961      219.81144      0.5          
    715000  -900.39132      158.30991      220.51825      0.5          
    716000  -964.09036      276.3439       220.08695      0.5          
    717000  -859.04006     -76.158846      222.10995      0.5          
    718000  -928.80079     -204.39162      219.31973      0.5          
    719000  -966.60492      82.906186      217.29919      0.5          
    720000  -953.10653      101.89663      218.07822      0.5          
    721000  -854.08073      152.61103      220.22907      0.5          
    722000  -813.93528      112.11091      221.62869      0.5          
    723000  -852.56197      144.19902      219.3405       0.5          
    724000  -777.66396     -113.19135      221.23605      0.5          
    725000  -913.48924     -375.68581      219.6213       0.5          
    726000  -895.43574      62.496349      220.32474      0.5          
    727000  -984.97216      337.79217      215.75476      0.5          
    728000  -925.54209      52.172849      213.94592      0.5          
    729000  -764.21354     -269.61774      222.43735      0.5          
    730000  -834.66001      18.119811      221.04725      0.5          
    731000  -871.88159      57.269612      220.69753      0.5          
    732000  -1030.285      -273.03909      215.57846      0.5          
    733000  -867.59593     -76.869368      220.41573      0.5          
    734000  -757.86061      155.38923      226.1271       0.5          
    735000  -850.60262      103.61737      222.09623      0.5          
    736000  -833.66067     -124.06429      222.5518       0.5          
    737000  -796.41965      100.79872      220.43257      0.5          
    738000  -862.3415       22.578495      218.35396      0.5          
    739000  -839.81384      16.402751      220.70482      0.5          
    740000  -775.98657      33.544112      222.55121      0.5          
    741000  -899.12368     -39.367494      217.81165      0.5          
    742000  -744.14754     -44.772699      223.88769      0.5          
    743000  -779.85192     -5.2666613      221.8641       0.5          
    744000  -904.5441      -94.591992      219.63288      0.5          
    745000  -842.34634      135.11194      220.12577      0.5          
    746000  -666.55283      238.05546      222.68651      0.5          
    747000  -810.29875     -196.49604      218.67409      0.5          
    748000  -851.77378      12.694256      220.53819      0.5          
    749000  -803.52074      102.29527      217.92407      0.5          
    750000  -764.19661     -106.16996      220.74269      0.5          
    751000  -763.99744      32.438607      219.72105      0.5          
    752000  -665.72814     -59.615036      226.46248      0.5          
    753000  -852.81787      78.724063      216.69145      0.5          
    754000  -916.69899      202.17036      216.6862       0.5          
    755000  -774.81724     -164.01144      221.63797      0.5          
    756000  -906.88956     -106.46949      216.55752      0.5          
    757000  -878.28834     -47.680719      217.36214      0.5          
    758000  -866.16495      7.4767642      220.84624      0.5          
    759000  -653.11303      44.628266      223.58957      0.5          
    760000  -767.13544      127.30473      221.15857      0.5          
    761000  -833.46597     -52.550693      220.89886      0.5          
    762000  -732.05075      198.57887      223.35968      0.5          
    763000  -829.60973     -22.770813      220.8589       0.5          
    764000  -762.51359     -20.851786      222.69868      0.5          
    765000  -885.11395      132.36304      218.4957       0.5          
    766000  -912.63032      218.25005      221.28385      0.5          
    767000  -901.4032       60.470241      218.31787      0.5          
    768000  -877.49648      32.292347      219.57725      0.5          
    769000  -874.05678      35.360082      222.4944       0.5          
    770000  -961.92578     -26.273992      218.43892      0.5          
    771000  -846.93559      41.344941      222.45299      0.5          
    772000  -870.20459      85.697036      216.09569      0.5          
    773000  -758.78719     -134.02275      224.4773       0.5          
    774000  -912.23711     -286.00411      216.46865      0.5          
    775000  -791.67095      181.03759      219.98636      0.5          
    776000  -828.29086      230.46612      220.45688      0.5          
    777000  -793.0119      -38.485735      220.01491      0.5          
    778000  -809.39889      40.141282      219.49325      0.5          
    779000  -785.24511     -140.62511      220.69671      0.5          
    780000  -820.96016     -37.798207      219.73258      0.5          
    781000  -804.8067       4.0542696      220.13321      0.5          
    782000  -900.28371     -110.48142      218.329        0.5          
    783000  -765.01747      135.92241      221.95828      0.5          
    784000  -862.77152      21.86369       219.33304      0.5          
    785000  -829.46017     -260.93191      217.39508      0.5          
    786000  -735.81317     -13.370412      222.18351      0.5          
    787000  -847.29169      240.74345      219.40586      0.5          
    788000  -762.92166     -125.05472      222.43777      0.5          
    789000  -745.26527      78.325053      220.76463      0.5          
    790000  -891.33186      104.54051      218.48086      0.5          
    791000  -829.02979     -286.24207      220.99182      0.5          
    792000  -757.8066      -450.26602      222.74589      0.5          
    793000  -729.76828      101.09841      223.20506      0.5          
    794000  -714.5612       139.75947      224.75333      0.5          
    795000  -792.95765      86.112432      217.74816      0.5          
    796000  -713.98813      262.89548      222.10088      0.5          
    797000  -875.58776      123.30084      219.30596      0.5          
    798000  -812.84617      192.47473      222.15352      0.5          
    799000  -911.38126     -326.01748      217.88403      0.5          
    800000  -812.60952     -60.264705      222.19534      0.5          
    801000  -820.64928      254.7492       221.66741      0.5          
    802000  -727.45962     -169.79012      220.69534      0.5          
    803000  -866.5499      -93.764965      218.81122      0.5          
    804000  -893.30504     -13.0005        220.76714      0.5          
    805000  -864.28188      37.930093      218.16021      0.5          
    806000  -858.87777     -321.59919      218.15409      0.5          
    807000  -869.45719     -40.414256      219.18534      0.5          
    808000  -806.70313      137.56966      220.07894      0.5          
    809000  -756.1088      -132.39448      221.93749      0.5          
    810000  -994.07551     -321.02599      215.5784       0.5          
    811000  -836.26459      91.197168      221.82936      0.5          
    812000  -826.48673      72.77919       218.70305      0.5          
    813000  -812.77805     -97.520998      221.69142      0.5          
    814000  -858.01849     -232.66549      220.34254      0.5          
    815000  -854.02372      20.061753      220.68424      0.5          
    816000  -866.65857      240.4431       217.86256      0.5          
    817000  -958.81128     -77.929236      217.58669      0.5          
    818000  -771.97702     -195.20142      223.47446      0.5          
    819000  -887.59322      115.88162      217.22471      0.5          
    820000  -852.96358      90.690545      218.50455      0.5          
    821000  -855.15773     -156.50379      219.2642       0.5          
    822000  -761.48664     -65.248935      223.36426      0.5          
    823000  -833.08269     -106.01575      218.3521       0.5          
    824000  -870.33955      48.216888      219.5317       0.5          
    825000  -863.30509     -32.831949      220.53345      0.5          
    826000  -691.35471      106.98101      223.70324      0.5          
    827000  -806.55405      77.4076        220.7015       0.5          
    828000  -836.59142     -38.859123      221.08296      0.5          
    829000  -779.83634     -100.20238      219.73123      0.5          
    830000  -888.18368     -65.67329       219.10284      0.5          
    831000  -825.35024      36.737292      218.88309      0.5          
    832000  -828.98448     -98.53831       221.81986      0.5          
    833000  -752.83227     -236.42318      222.60058      0.5          
    834000  -772.16479      8.9939429      220.15001      0.5          
    835000  -847.61772     -235.98911      219.2009       0.5          
    836000  -830.37289      58.356495      218.52817      0.5          
    837000  -878.81617      176.10022      217.03465      0.5          
    838000  -710.99893     -341.73985      222.09666      0.5          
    839000  -823.2684       151.02449      219.81218      0.5          
    840000  -849.89197     -48.808451      217.30201      0.5          
    841000  -686.2599      -199.45568      223.28327      0.5          
    842000  -797.77918     -67.327716      220.40572      0.5          
    843000  -718.13452      178.5397       220.33761      0.5          
    844000  -705.23764      297.08617      221.85743      0.5          
    845000  -787.59325     -282.54375      221.48165      0.5          
    846000  -805.16375     -312.94528      221.92877      0.5          
    847000  -914.12355     -61.586495      216.95356      0.5          
    848000  -865.84757      60.380921      219.25716      0.5          
    849000  -813.38137     -27.372829      221.09579      0.5          
    850000  -785.9762      -162.25946      221.07352      0.5          
    851000  -640.02184      31.332444      224.91236      0.5          
    852000  -612.97245      138.26073      224.67781      0.5          
    853000  -723.93236      25.835453      221.28549      0.5          
    854000  -830.75215     -327.94955      217.99573      0.5          
    855000  -770.13287      349.37922      220.75089      0.5          
    856000  -884.10725     -60.687728      219.84413      0.5          
    857000  -821.05069     -150.00886      221.67889      0.5          
    858000  -800.71219      206.47771      219.10241      0.5          
    859000  -969.07483      21.789282      216.80534      0.5          
    860000  -959.60361     -156.86978      218.54647      0.5          
    861000  -792.31527      226.30393      218.71786      0.5          
    862000  -890.90063      164.23247      221.18386      0.5          
    863000  -828.36282     -315.61074      219.14999      0.5          
    864000  -811.60575      45.211981      221.94971      0.5          
    865000  -805.0062       164.01165      220.10215      0.5          
    866000  -811.49098      156.52139      219.72021      0.5          
    867000  -706.85421     -94.135044      224.10572      0.5          
    868000  -798.69494     -92.39711       223.67572      0.5          
    869000  -717.19655      59.531564      223.45838      0.5          
    870000  -669.06127      58.729125      222.35869      0.5          
    871000  -723.50396     -209.64148      220.24312      0.5          
    872000  -694.46658     -97.285787      222.44057      0.5          
    873000  -816.1407       16.900976      220.24156      0.5          
    874000  -757.60396      120.06049      221.30922      0.5          
    875000  -830.23154      204.09839      221.91825      0.5          
    876000  -796.60393     -61.916008      220.67851      0.5          
    877000  -766.55845     -107.96363      223.01589      0.5          
    878000  -871.46043     -134.55532      218.4005       0.5          
    879000  -789.54216      24.132432      221.03954      0.5          
    880000  -806.25681     -99.638627      218.50243      0.5          
    881000  -779.55564     -187.37488      220.46653      0.5          
    882000  -731.3787      -232.22777      222.24116      0.5          
    883000  -610.28153     -170.8058       219.3557       0.5          
    884000  -711.11828     -126.15749      222.73193      0.5          
    885000  -674.81983     -173.87877      222.90011      0.5          
    886000  -661.20864      279.20879      223.37012      0.5          
    887000  -671.5365      -164.52294      219.4097       0.5          
    888000  -712.84875      22.61244       220.71447      0.5          
    889000  -761.57876     -30.671339      218.17233      0.5          
    890000  -770.53077      5.3210505      217.83887      0.5          
    891000  -690.90405      389.80545      220.08221      0.5          
    892000  -834.22117      162.99635      216.81248      0.5          
    893000  -787.98506      140.04232      218.5515       0.5          
    894000  -817.55938     -11.81901       218.58769      0.5          
    895000  -896.65341      255.99313      217.58157      0.5          
    896000  -888.42271     -239.01011      217.77428      0.5          
    897000  -633.08038      41.603315      222.91535      0.5          
    898000  -749.43591      133.94836      220.75794      0.5          
    899000  -748.89255      70.090881      220.73206      0.5          
    900000  -763.56729      144.5075       220.70369      0.5          
    901000  -810.83628     -187.52361      219.16466      0.5          
    902000  -790.73946     -60.83881       221.70995      0.5          
    903000  -842.84486     -163.24816      218.53851      0.5          
    904000  -899.58243      197.43519      221.61566      0.5          
    905000  -791.87968      278.78968      223.39292      0.5          
    906000  -814.56459      67.057559      221.62487      0.5          
    907000  -783.75409     -46.004806      223.90195      0.5          
    908000  -865.77082     -109.56213      219.9043       0.5          
    909000  -820.13726     -200.71578      220.85179      0.5          
    910000  -696.07276     -99.926848      220.02359      0.5          
    911000  -656.62424      19.539265      222.28267      0.5          
    912000  -794.41479     -167.27772      218.38623      0.5          
    913000  -704.80665      207.36861      225.31714      0.5          
    914000  -731.45789      46.307066      222.20523      0.5          
    915000  -725.16657     -187.0394       223.23455      0.5          
    916000  -738.6157      -254.21941      221.12034      0.5          
    917000  -797.41608      123.04849      219.40899      0.5          
    918000  -791.83711     -144.9823       216.64207      0.5          
    919000  -712.8626      -207.50915      220.48291      0.5          
    920000  -795.66814     -100.80624      218.0699       0.5          
    921000  -701.49332     -89.058103      222.45829      0.5          
    922000  -672.36633     -256.86257      225.32832      0.5          
    923000  -855.70733      11.299746      220.64755      0.5          
    924000  -797.77364      424.2369       219.94832      0.5          
    925000  -768.17181      73.796073      218.53606      0.5          
    926000  -713.30915     -152.21991      222.58946      0.5          
    927000  -834.65897     -72.276775      218.90616      0.5          
    928000  -707.59359      374.33591      222.75725      0.5          
    929000  -752.02128     -56.59341       221.33033      0.5          
    930000  -857.73325     -152.23669      216.37323      0.5          
    931000  -767.42518     -42.492803      218.1384       0.5          
    932000  -698.60351      128.62299      219.74912      0.5          
    933000  -715.90003      245.66943      220.62588      0.5          
    934000  -755.56571     -214.74936      220.09444      0.5          
    935000  -853.13435     -264.22911      216.36634      0.5          
    936000  -761.23297      251.59805      218.53655      0.5          
    937000  -759.97631      128.83119      218.60997      0.5          
    938000  -745.60855     -340.31276      220.78767      0.5          
    939000  -764.23376      46.902263      218.18471      0.5          
    940000  -790.64108      149.15842      219.22201      0.5          
    941000  -867.66974      171.20889      215.4249       0.5          
    942000  -776.75181     -107.7024       218.97194      0.5          
    943000  -750.82065     -268.71516      221.42495      0.5          
    944000  -786.28262     -4.2150363      221.73025      0.5          
    945000  -802.77959      148.68541      219.40216      0.5          
    946000  -783.38924     -62.896257      220.49149      0.5          
    947000  -886.6134       4.2164199      220.37002      0.5          
    948000  -841.69787      99.915673      220.13092      0.5          
    949000  -770.88498      215.74613      220.96541      0.5          
    950000  -912.60145      85.151373      218.69182      0.5          
    951000  -777.97848     -85.377452      222.53701      0.5          
    952000  -744.59944     -31.711896      222.58683      0.5          
    953000  -841.37371      76.680904      221.6164       0.5          
    954000  -938.70781     -22.096515      216.92824      0.5          
    955000  -839.27426      80.880064      220.42362      0.5          
    956000  -823.18076      156.31174      221.30043      0.5          
    957000  -820.93367      133.24319      219.13172      0.5          
    958000  -788.36583     -34.691643      218.41063      0.5          
    959000  -730.29454     -282.56215      221.02279      0.5          
    960000  -742.17193      239.97678      221.09771      0.5          
    961000  -721.99735      332.6182       221.73723      0.5          
    962000  -774.56624     -408.92091      219.20877      0.5          
    963000  -802.60298     -38.018119      219.82946      0.5          
    964000  -697.67549      101.98885      221.26355      0.5          
    965000  -719.71015     -89.921035      219.92006      0.5          
    966000  -759.47203     -57.941601      220.75351      0.5          
    967000  -663.45891     -99.671195      219.89927      0.5          
    968000  -645.65462     -3.305049       221.75996      0.5          
    969000  -656.41081      8.3839637      221.64596      0.5          
    970000  -637.02385     -63.502356      222.6988       0.5          
    971000  -753.58428      102.31528      218.05569      0.5          
    972000  -734.81974     -163.30605      221.69337      0.5          
    973000  -732.58583     -67.336986      220.33829      0.5          
    974000  -823.7681       27.055389      218.02412      0.5          
    975000  -813.2829       38.789537      219.78631      0.5          
    976000  -690.66128      229.53017      223.10853      0.5          
    977000  -827.51301      65.188132      219.28158      0.5          
    978000  -822.01924      5.9104291      218.68545      0.5          
    979000  -830.80632      177.68471      220.45029      0.5          
    980000  -843.60014     -142.86266      220.73561      0.5          
    981000  -762.91052     -297.56599      220.15397      0.5          
    982000  -814.35628      75.591527      218.73583      0.5          
    983000  -846.68817      43.324265      219.8739       0.5          
    984000  -907.42437      82.596365      219.54328      0.5          
    985000  -835.59275     -110.19854      221.05508      0.5          
    986000  -832.04917      43.003747      224.55117      0.5          
    987000  -840.85205      330.42921      221.11882      0.5          
    988000  -956.0887       28.704393      216.93884      0.5          
    989000  -927.17902     -104.27723      218.1468       0.5          
    990000  -839.56249      166.10948      218.00747      0.5          
    991000  -710.62567     -32.151095      223.5597       0.5          
    992000  -781.08293     -191.70154      219.54665      0.5          
    993000  -850.70555     -74.202366      217.80434      0.5          
    994000  -804.35826     -2.6739506      220.72784      0.5          
    995000  -755.15482      86.345344      221.36208      0.5          
    996000  -788.48776      296.20181      220.91413      0.5          
    997000  -894.94097      34.940585      217.69108      0.5          
    998000  -724.86704     -102.93112      222.53489      0.5          
    999000  -753.57398      70.708652      223.53489      0.5          
   1000000  -755.0415      -98.874631      221.72148      0.5          
   1001000  -814.44474     -74.819245      217.75017      0.5          
   1002000  -792.6856       96.747662      218.25525      0.5          
   1003000  -772.57331     -209.21366      220.28026      0.5          
   1004000  -698.70136     -193.30499      217.42593      0.5          
   1005000  -625.67253      121.3008       221.61731      0.5          
   1006000  -654.69753      255.6861       221.98658      0.5          
   1007000  -596.70462     -136.24527      219.49451      0.5          
   1008000  -658.09336     -41.278006      221.42849      0.5          
   1009000  -733.80389     -149.66969      218.29675      0.5          
   1010000  -607.35874     -290.12679      221.29723      0.5          
   1011000  -796.07995     -91.302416      218.47652      0.5          
   1012000  -712.13691      259.39654      219.28571      0.5          
   1013000  -635.39339      111.52997      218.86887      0.5          
   1014000  -642.85013     -100.15988      223.32402      0.5          
   1015000  -859.8398      -47.226817      213.85779      0.5          
   1016000  -560.63562      16.332694      223.29194      0.5          
   1017000  -673.87613      184.09027      218.53237      0.5          
   1018000  -727.80173     -107.9613       218.81322      0.5          
   1019000  -824.73213     -347.17605      219.59982      0.5          
   1020000  -667.427        133.77591      223.08136      0.5          
   1021000  -794.74458      37.903731      219.4609       0.5          
   1022000  -812.09923      98.829478      220.96396      0.5          
   1023000  -848.43428     -335.84877      218.46624      0.5          
   1024000  -778.51459      272.01154      218.26264      0.5          
   1025000  -799.5255      -3.4908876      219.95631      0.5          
   1026000  -872.00803     -268.01526      217.23333      0.5          
   1027000  -836.33566     -283.67686      216.85863      0.5          
   1028000  -849.21981      93.497236      221.17826      0.5          
   1029000  -810.21314      168.96885      221.08585      0.5          
   1030000  -830.97867     -443.21981      219.97581      0.5          
   1031000  -847.56716      56.843659      218.85685      0.5          
   1032000  -791.94947      576.19117      217.34346      0.5          
   1033000  -909.0258      -270.44864      217.5242       0.5          
   1034000  -827.62079     -135.32629      221.10663      0.5          
   1035000  -888.20204      265.92374      217.41786      0.5          
   1036000  -860.7094      -37.634043      218.29418      0.5          
   1037000  -789.01949      137.72807      219.00666      0.5          
   1038000  -835.57985     -134.16818      221.16034      0.5          
   1039000  -857.97768     -300.76539      220.2861       0.5          
   1040000  -879.51874      203.35159      218.09192      0.5          
   1041000  -832.32417      91.464471      217.36821      0.5          
   1042000  -755.23768     -185.35709      220.61129      0.5          
   1043000  -793.23585      59.254205      220.18041      0.5          
   1044000  -843.51202     -60.085502      217.56638      0.5          
   1045000  -801.20635      100.65276      218.20669      0.5          
   1046000  -671.62458      237.15929      220.22294      0.5          
   1047000  -816.83078      7.5564595      218.0635       0.5          
   1048000  -775.50461     -154.53922      220.1225       0.5          
   1049000  -752.48317      160.77188      219.57696      0.5          
   1050000  -709.11897      79.304537      221.80334      0.5          
   1051000  -769.37931     -94.807055      218.27827      0.5          
   1052000  -701.78265     -34.992944      220.48495      0.5          
   1053000  -721.46481     -185.39755      221.6897       0.5          
   1054000  -861.23967      58.77115       216.91056      0.5          
   1055000  -733.71485      42.749682      219.39474      0.5          
   1056000  -633.19907     -0.4629092      219.63944      0.5          
   1057000  -678.27024     -20.15526       220.0424       0.5          
   1058000  -703.01786     -114.33268      221.54988      0.5          
   1059000  -719.53781      90.346962      219.66656      0.5          
   1060000  -603.50729      34.882268      224.95857      0.5          
   1061000  -661.99035      25.106844      220.67344      0.5          
   1062000  -676.03528      214.50888      219.72215      0.5          
   1063000  -586.35848     -11.851176      224.62705      0.5          
   1064000  -766.28456     -218.25085      223.16498      0.5          
   1065000  -709.12481      375.58641      222.99363      0.5          
   1066000  -804.99844     -1.659304       216.10958      0.5          
   1067000  -780.68114     -27.218728      220.48374      0.5          
   1068000  -725.22193      49.605437      222.92319      0.5          
   1069000  -720.50295     -404.20293      221.35826      0.5          
   1070000  -788.33463     -24.291723      220.61866      0.5          
   1071000  -813.39408      268.96587      222.15392      0.5          
   1072000  -860.91955     -132.90267      219.38796      0.5          
   1073000  -923.05513     -28.714105      215.52419      0.5          
   1074000  -780.82918      207.92151      223.40664      0.5          
   1075000  -770.08784     -80.19093       223.08625      0.5          
   1076000  -681.39841     -131.75913      224.27737      0.5          
   1077000  -838.70307      57.994319      221.12333      0.5          
   1078000  -751.50802      105.90913      223.02149      0.5          
   1079000  -898.45221      86.824062      216.43961      0.5          
   1080000  -766.8315       54.317983      220.52671      0.5          
   1081000  -777.82359      47.999896      221.02066      0.5          
   1082000  -950.70253      198.16164      214.95342      0.5          
   1083000  -819.69837      105.04336      217.84234      0.5          
   1084000  -928.1138       26.994948      217.76079      0.5          
   1085000  -880.93736     -0.23261846     220.51287      0.5          
   1086000  -841.98138     -106.21717      221.89208      0.5          
   1087000  -799.29507     -171.98105      220.75563      0.5          
   1088000  -809.68262     -236.63805      219.06594      0.5          
   1089000  -751.8836       119.54556      220.41685      0.5          
   1090000  -803.01802     -45.551879      219.70551      0.5          
   1091000  -793.87406      299.00169      222.65301      0.5          
   1092000  -767.37402      16.302302      219.13804      0.5          
   1093000  -775.10796      74.729143      220.18789      0.5          
   1094000  -724.6135      -217.78866      221.13205      0.5          
   1095000  -647.38651     -26.990377      223.30261      0.5          
   1096000  -889.39335      23.276826      214.05023      0.5          
   1097000  -855.49405     -157.14071      215.79165      0.5          
   1098000  -765.81538     -222.51705      222.47699      0.5          
   1099000  -692.25536      26.755362      221.77336      0.5          
   1100000  -755.47552      121.3944       221.85738      0.5          
   1101000  -706.48977     -256.1976       219.30501      0.5          
   1102000  -738.98703      20.993916      220.01394      0.5          
   1103000  -760.97356      100.12378      220.23475      0.5          
   1104000  -688.54893     -58.120494      223.54581      0.5          
   1105000  -809.51523     -36.520641      219.62155      0.5          
   1106000  -806.38148      158.49971      217.27747      0.5          
   1107000  -700.82967     -85.705088      223.42094      0.5          
   1108000  -829.61901     -140.78758      218.72741      0.5          
   1109000  -787.17687      349.89057      219.42172      0.5          
   1110000  -827.40688      92.428874      216.87666      0.5          
   1111000  -669.24753     -207.68986      224.37097      0.5          
   1112000  -760.76743     -371.08402      219.97133      0.5          
   1113000  -796.98559      83.133453      220.46965      0.5          
   1114000  -829.92419      64.082941      219.15314      0.5          
   1115000  -899.41311      175.67285      217.45402      0.5          
   1116000  -777.77324     -30.383752      220.77768      0.5          
   1117000  -782.31504     -145.88989      222.23185      0.5          
   1118000  -793.06062      102.2821       219.30548      0.5          
   1119000  -873.10961      19.823325      219.44502      0.5          
   1120000  -817.90669     -202.07926      218.8475       0.5          
   1121000  -775.19394      25.871748      221.51342      0.5          
   1122000  -687.3802       58.867732      222.89276      0.5          
   1123000  -914.62295      105.08876      216.28994      0.5          
   1124000  -838.12074     -76.359396      221.16637      0.5          
   1125000  -889.66544      49.369481      219.71675      0.5          
   1126000  -865.24175      8.2585763      219.72032      0.5          
   1127000  -890.6292       112.52856      220.23135      0.5          
   1128000  -785.86861      162.33496      219.99332      0.5          
   1129000  -817.2562      -59.91878       219.84795      0.5          
   1130000  -826.47943     -256.07289      218.17347      0.5          
   1131000  -838.7169       11.839525      216.62272      0.5          
   1132000  -677.73907      306.34833      224.64828      0.5          
   1133000  -669.4815      -192.71499      221.43262      0.5          
   1134000  -798.40668     -91.793884      221.53643      0.5          
   1135000  -796.81814      34.314198      220.87964      0.5          
   1136000  -775.33009     -12.547225      223.1379       0.5          
   1137000  -780.74355      65.021399      219.97466      0.5          
   1138000  -936.98618      176.36687      217.60529      0.5          
   1139000  -813.04418     -215.41726      217.20568      0.5          
   1140000  -753.01915     -177.08173      223.42412      0.5          
   1141000  -758.98756     -66.617875      221.18517      0.5          
   1142000  -755.76591     -157.55908      220.16159      0.5          
   1143000  -721.26757      190.68438      222.77467      0.5          
   1144000  -798.44556     -168.51155      220.09782      0.5          
   1145000  -862.36455     -374.49811      218.56824      0.5          
   1146000  -728.14851     -5.1666516      219.79421      0.5          
   1147000  -817.71074     -126.26416      218.12951      0.5          
   1148000  -860.75128     -92.12643       217.75122      0.5          
   1149000  -760.99302      33.341342      218.87257      0.5          
   1150000  -759.98149     -13.353838      223.51331      0.5          
   1151000  -875.14262     -62.884091      217.70951      0.5          
   1152000  -728.81842      87.162382      222.89944      0.5          
   1153000  -747.89316     -204.27622      220.83555      0.5          
   1154000  -859.93203      4.9338402      220.62463      0.5          
   1155000  -789.23508     -61.625258      218.36018      0.5          
   1156000  -748.65944     -81.31723       218.88845      0.5          
   1157000  -728.00089     -12.8946        220.29821      0.5          
   1158000  -683.31552      19.069978      220.63084      0.5          
   1159000  -720.44641      151.22107      222.54133      0.5          
   1160000  -740.87246     -171.35571      220.5257       0.5          
   1161000  -707.5926      -145.48775      219.46623      0.5          
   1162000  -746.18242     -136.44507      219.28698      0.5          
   1163000  -740.49267     -255.49854      223.17673      0.5          
   1164000  -727.76805     -128.93353      220.12954      0.5          
   1165000  -718.40388     -145.00587      218.91891      0.5          
   1166000  -692.85781      46.92134       222.7252       0.5          
   1167000  -710.08216      105.98068      219.33576      0.5          
   1168000  -782.61727      213.7437       218.97862      0.5          
   1169000  -742.17879     -76.087362      218.4123       0.5          
   1170000  -728.08358      16.299071      220.30988      0.5          
   1171000  -683.54164     -98.897384      220.85713      0.5          
   1172000  -714.79312      5.406586       220.82348      0.5          
   1173000  -846.01298     -80.407139      216.97415      0.5          
   1174000  -746.75776     -148.6282       217.81585      0.5          
   1175000  -751.00249      175.57299      218.84484      0.5          
   1176000  -719.21239      278.61588      221.36239      0.5          
   1177000  -777.47947     -154.94429      219.7761       0.5          
   1178000  -753.22769      8.9067799      220.76909      0.5          
   1179000  -813.43787     -44.023419      222.89651      0.5          
   1180000  -724.45072      30.081772      220.53976      0.5          
   1181000  -772.07791      192.20136      215.76095      0.5          
   1182000  -766.69023     -2.6804408      220.29431      0.5          
   1183000  -931.93754     -86.420456      217.05871      0.5          
   1184000  -866.56882      223.43914      220.6544       0.5          
   1185000  -849.0755      -109.35161      217.60824      0.5          
   1186000  -860.78382     -66.109438      222.02823      0.5          
   1187000  -775.98805     -30.127875      220.5125       0.5          
   1188000  -818.10649      32.79486       221.25048      0.5          
   1189000  -804.65059     -152.03022      219.83204      0.5          
   1190000  -790.74371     -24.460145      221.15601      0.5          
   1191000  -765.8187       36.877053      218.5128       0.5          
   1192000  -815.4964       282.38989      217.48532      0.5          
   1193000  -717.12438      22.742657      221.10907      0.5          
   1194000  -878.7126       105.55746      217.92467      0.5          
   1195000  -738.56043      140.28669      220.49652      0.5          
   1196000  -700.935        85.268898      221.20359      0.5          
   1197000  -857.4338      -103.27714      218.73204      0.5          
   1198000  -763.8573      -10.069183      221.27608      0.5          
   1199000  -768.15153      121.48715      219.47336      0.5          
   1200000  -763.30679     -134.81438      221.09907      0.5          
   1201000  -784.55673     -218.13916      221.97207      0.5          
   1202000  -697.67474      29.282083      219.81045      0.5          
   1203000  -662.95005      48.608451      219.75514      0.5          
   1204000  -641.83383      38.652014      221.90468      0.5          
   1205000  -718.06944      141.81041      218.45277      0.5          
   1206000  -630.88681      102.76409      221.03096      0.5          
   1207000  -734.79469     -186.44694      219.11882      0.5          
   1208000  -566.46325     -124.5075       222.0441       0.5          
   1209000  -626.21582      164.2568       221.15964      0.5          
   1210000  -563.676       -172.93703      222.54239      0.5          
   1211000  -547.68231     -158.25521      222.49624      0.5          
   1212000  -660.8395      -150.07407      222.82562      0.5          
   1213000  -608.05902     -159.33749      220.25064      0.5          
   1214000  -722.50082     -114.94509      221.05594      0.5          
   1215000  -791.4063      -66.385437      218.08924      0.5          
   1216000  -839.4952       17.946993      217.67538      0.5          
   1217000  -869.52873     -231.54333      216.95717      0.5          
   1218000  -783.41685      258.05996      219.32027      0.5          
   1219000  -770.63611     -97.158639      221.97309      0.5          
   1220000  -860.9377      -204.6644       219.00522      0.5          
   1221000  -738.3713       187.35578      223.26117      0.5          
   1222000  -783.28721      89.277933      221.59827      0.5          
   1223000  -777.6283       28.139609      218.54228      0.5          
   1224000  -874.90993      40.192209      220.83369      0.5          
   1225000  -777.05178     -13.905472      221.4971       0.5          
   1226000  -955.13362      147.48483      215.7945       0.5          
   1227000  -850.82352     -212.11955      217.46547      0.5          
   1228000  -771.69564     -35.300633      219.36692      0.5          
   1229000  -852.86558      254.50697      217.93985      0.5          
   1230000  -885.7962      -144.31382      217.80438      0.5          
   1231000  -893.97418     -105.55702      219.41405      0.5          
   1232000  -772.37597     -109.77961      220.50936      0.5          
   1233000  -797.38227     -188.21378      221.67446      0.5          
   1234000  -781.06783      286.88396      219.96287      0.5          
   1235000  -890.60267      317.9444       216.63036      0.5          
   1236000  -773.61804     -250.37604      218.25599      0.5          
   1237000  -795.24349      0.66047093     218.78264      0.5          
   1238000  -686.0104       44.253464      222.50707      0.5          
   1239000  -716.73598     -321.0232       221.47401      0.5          
   1240000  -787.04052      6.148199       219.16753      0.5          
   1241000  -653.52165      193.86352      220.46941      0.5          
   1242000  -637.76384     -79.302747      220.39566      0.5          
   1243000  -659.03133      75.951195      221.53305      0.5          
   1244000  -640.89115      14.384537      218.74678      0.5          
   1245000  -676.54327     -82.183413      223.35823      0.5          
   1246000  -836.69056     -92.21304       216.9809       0.5          
   1247000  -679.7479      -39.462761      223.23111      0.5          
   1248000  -709.17487     -127.22626      220.44415      0.5          
   1249000  -702.16677      38.035615      221.63767      0.5          
   1250000  -634.62515     -95.584624      223.79436      0.5          
   1251000  -818.9707      -223.61572      215.96988      0.5          
   1252000  -709.27562     -103.74693      220.96058      0.5          
   1253000  -761.62076     -6.1235821      218.20743      0.5          
   1254000  -705.83749      155.24487      221.02018      0.5          
   1255000  -815.91617     -319.80544      218.92251      0.5          
   1256000  -839.16096      158.82014      222.38068      0.5          
   1257000  -838.53043      415.1575       219.90891      0.5          
   1258000  -789.01214     -124.44083      221.53823      0.5          
   1259000  -852.65512      195.48178      220.00519      0.5          
   1260000  -857.93509      27.590404      217.61464      0.5          
   1261000  -817.73252      44.369762      220.31472      0.5          
   1262000  -770.89179      169.6917       218.45135      0.5          
   1263000  -869.47525      51.791382      216.82829      0.5          
   1264000  -847.27876     -1.3908221      220.29758      0.5          
   1265000  -756.59481     -348.89246      220.86932      0.5          
   1266000  -822.28157      125.09664      221.40905      0.5          
   1267000  -832.36693     -55.117128      217.97084      0.5          
   1268000  -808.969        223.05842      221.44118      0.5          
   1269000  -729.39406      42.564738      220.62686      0.5          
   1270000  -787.157       -360.04053      221.18883      0.5          
   1271000  -795.40461     -181.9078       220.21453      0.5          
   1272000  -716.16788      252.42454      221.73667      0.5          
   1273000  -784.0379      -13.896346      218.86553      0.5          
   1274000  -775.61594     -188.88063      218.53057      0.5          
   1275000  -710.44476     -12.589674      219.66523      0.5          
   1276000  -773.85023     -10.318481      218.46786      0.5          
   1277000  -776.19897     -4.785608       222.90228      0.5          
   1278000  -916.21756     -144.63761      212.87154      0.5          
   1279000  -819.12549     -44.260909      218.12942      0.5          
   1280000  -897.33975      213.91656      214.35432      0.5          
   1281000  -702.97842     -193.78626      220.43585      0.5          
   1282000  -653.4661      -221.48033      223.65478      0.5          
   1283000  -794.15244     -107.50946      218.37         0.5          
   1284000  -737.55827      218.74991      218.28132      0.5          
   1285000  -621.40644     -59.994805      222.86219      0.5          
   1286000  -815.03967     -74.757556      217.86912      0.5          
   1287000  -724.71507      37.974262      222.37892      0.5          
   1288000  -814.74317     -155.76966      220.1589       0.5          
   1289000  -788.71541     -119.74449      218.52412      0.5          
   1290000  -744.34374     -79.769271      221.22928      0.5          
   1291000  -805.70045      159.45352      219.88227      0.5          
   1292000  -770.29876     -27.846666      219.75438      0.5          
   1293000  -951.08745     -8.2544893      217.77776      0.5          
   1294000  -733.60425      347.62651      222.66499      0.5          
   1295000  -814.6927      -304.30329      218.73311      0.5          
   1296000  -812.28618      1.9349882      219.2475       0.5          
   1297000  -734.41402      354.11146      221.9863       0.5          
   1298000  -898.52074     -261.95595      216.94218      0.5          
   1299000  -887.06618      257.65847      218.83823      0.5          
   1300000  -864.80966      59.692202      219.3047       0.5          
   1301000  -831.44463     -181.32889      217.33728      0.5          
   1302000  -782.86743      71.400347      219.66503      0.5          
   1303000  -845.26885     -65.104808      219.32278      0.5          
   1304000  -761.07415     -49.859888      222.02899      0.5          
   1305000  -796.61375      26.578492      219.26958      0.5          
   1306000  -860.75608     -28.576294      218.48264      0.5          
   1307000  -833.89801      192.64137      218.06535      0.5          
   1308000  -658.37486     -145.29761      222.56025      0.5          
   1309000  -842.01376     -282.58882      218.76428      0.5          
   1310000  -753.45675      318.06382      218.03339      0.5          
   1311000  -786.66901      242.13434      218.97281      0.5          
   1312000  -794.5532      -119.12318      217.55323      0.5          
   1313000  -697.8968      -15.565296      221.86219      0.5          
   1314000  -816.28764     -41.181409      219.81244      0.5          
   1315000  -715.55429      0.56499246     221.90622      0.5          
   1316000  -636.97111      139.44628      223.52695      0.5          
   1317000  -802.07768     -57.888975      214.87825      0.5          
   1318000  -680.2616      -172.32701      221.52054      0.5          
   1319000  -681.69315      20.516148      221.36903      0.5          
   1320000  -883.49922     -51.250075      216.18591      0.5          
   1321000  -765.43479      184.06115      221.76938      0.5          
   1322000  -818.95057     -92.638337      219.12165      0.5          
   1323000  -683.25761     -87.432164      219.37554      0.5          
   1324000  -697.72443      173.35462      223.09455      0.5          
   1325000  -733.61777     -176.03206      221.98828      0.5          
   1326000  -776.21758     -157.5754       218.31299      0.5          
   1327000  -848.61        -123.52531      216.60702      0.5          
   1328000  -701.74084      189.15922      222.22977      0.5          
   1329000  -801.32892      298.32615      218.69831      0.5          
   1330000  -804.85318     -28.60457       223.49519      0.5          
   1331000  -961.6566      -116.58154      214.39448      0.5          
   1332000  -776.40893     -54.615972      221.2875       0.5          
   1333000  -842.90843     -222.38491      219.04107      0.5          
   1334000  -813.58208      180.70856      220.76218      0.5          
   1335000  -975.77891      91.121227      217.68089      0.5          
   1336000  -794.04693     -142.7234       221.12158      0.5          
   1337000  -762.88491     -123.39967      224.56572      0.5          
   1338000  -832.71494      80.958663      220.08342      0.5          
   1339000  -774.83749      94.779295      220.31493      0.5          
   1340000  -808.80278      296.42487      219.73068      0.5          
   1341000  -873.93623     -191.55741      217.90541      0.5          
   1342000  -684.68238     -37.593522      221.86137      0.5          
   1343000  -828.23102     -136.71898      219.03709      0.5          
   1344000  -693.374       -127.08097      222.22036      0.5          
   1345000  -779.09328      79.600238      219.0216       0.5          
   1346000  -622.37993     -131.25505      223.29141      0.5          
   1347000  -728.10121     -225.84571      219.62485      0.5          
   1348000  -754.66303      52.704946      221.40717      0.5          
   1349000  -679.39874      229.16196      221.53291      0.5          
   1350000  -726.42771     -76.157275      220.63755      0.5          
   1351000  -662.46823     -197.29533      222.61241      0.5          
   1352000  -710.42376      188.18449      218.33797      0.5          
   1353000  -658.62763      59.095627      220.6974       0.5          
   1354000  -703.62469     -98.875899      222.91169      0.5          
   1355000  -742.07965     -174.85038      218.59947      0.5          
   1356000  -725.96028     -103.05748      222.00015      0.5          
   1357000  -716.38968      89.017571      221.15004      0.5          
   1358000  -625.06478     -107.27867      220.47216      0.5          
   1359000  -765.2849      -136.08761      216.24847      0.5          
   1360000  -740.30612     -146.86944      222.78709      0.5          
   1361000  -803.26865      66.910773      218.54925      0.5          
   1362000  -834.39904     -137.64547      219.81408      0.5          
   1363000  -696.08284     -158.81815      223.38252      0.5          
   1364000  -813.98125      324.70659      221.11999      0.5          
   1365000  -736.08951      75.818762      224.2075       0.5          
   1366000  -738.54761     -19.887748      221.98135      0.5          
   1367000  -859.78392      10.527758      218.64404      0.5          
   1368000  -851.52346      179.26814      216.47919      0.5          
   1369000  -871.30068     -148.3611       219.85495      0.5          
   1370000  -801.53743     -113.5788       222.13949      0.5          
   1371000  -843.10446     -72.511897      218.69552      0.5          
   1372000  -696.88354     -130.89664      223.33942      0.5          
   1373000  -804.16597      52.041963      218.32181      0.5          
   1374000  -748.30949      196.85247      220.69958      0.5          
   1375000  -762.18774     -86.709953      219.81329      0.5          
   1376000  -743.92085      16.356102      220.84151      0.5          
   1377000  -667.98349      61.140559      221.75629      0.5          
   1378000  -776.81281     -108.92837      221.56615      0.5          
   1379000  -820.17582      48.819473      220.69505      0.5          
   1380000  -758.61278     -176.98318      219.14296      0.5          
   1381000  -706.90839     -234.29292      220.33028      0.5          
   1382000  -696.48754     -40.542478      219.44004      0.5          
   1383000  -723.35634      96.699807      222.91327      0.5          
   1384000  -722.46368      188.22418      217.49977      0.5          
   1385000  -645.83209     -246.45071      221.83758      0.5          
   1386000  -718.58049      273.53076      219.83464      0.5          
   1387000  -683.53957      148.01037      220.67941      0.5          
   1388000  -709.92641     -172.86384      221.15269      0.5          
   1389000  -750.99273      14.445262      216.73428      0.5          
   1390000  -780.52782      376.71453      218.7331       0.5          
   1391000  -714.22228     -65.822209      220.15246      0.5          
   1392000  -901.23081     -257.99304      217.07716      0.5          
   1393000  -799.98723      274.1205       217.71375      0.5          
   1394000  -760.08285     -186.90508      220.73971      0.5          
   1395000  -796.89752     -216.79803      220.12892      0.5          
   1396000  -740.42194      148.48615      218.96117      0.5          
   1397000  -813.47124      126.7962       217.93654      0.5          
   1398000  -663.20899     -51.357916      222.0032       0.5          
   1399000  -785.92949     -53.21866       221.00094      0.5          
   1400000  -778.6632      -4.8722345      220.41449      0.5          
   1401000  -811.6473      -204.0714       218.76842      0.5          
   1402000  -732.37863      352.56346      220.91631      0.5          
   1403000  -731.05717     -8.5828167      220.07968      0.5          
   1404000  -748.51564      0.96408997     223.7649       0.5          
   1405000  -812.57134      92.750197      219.6348       0.5          
   1406000  -813.67638     -40.15723       220.55724      0.5          
   1407000  -729.59072     -210.89551      221.95097      0.5          
   1408000  -705.55349      103.12959      221.75069      0.5          
   1409000  -769.43927     -69.931856      218.16814      0.5          
   1410000  -894.31208     -165.45246      217.4646       0.5          
   1411000  -701.46481      81.637823      223.57795      0.5          
   1412000  -801.17411     -157.29955      221.08974      0.5          
   1413000  -882.05527     -125.44204      216.29072      0.5          
   1414000  -776.5912      -98.975452      221.07895      0.5          
   1415000  -785.0095      -184.36487      219.90659      0.5          
   1416000  -873.61475     -28.361834      216.42687      0.5          
   1417000  -730.59616      130.45707      221.52399      0.5          
   1418000  -767.7319      -85.189105      219.30071      0.5          
   1419000  -793.61421      128.92051      216.43015      0.5          
   1420000  -777.16317      39.205862      216.55981      0.5          
   1421000  -804.76831     -389.14197      219.32123      0.5          
   1422000  -814.81291     -137.03417      217.93039      0.5          
   1423000  -635.09184     -113.19941      221.22936      0.5          
   1424000  -726.63185      213.5666       220.24752      0.5          
   1425000  -578.94023      62.010359      226.13728      0.5          
   1426000  -655.5804      -209.61902      221.03255      0.5          
   1427000  -704.92791      204.5265       219.38122      0.5          
   1428000  -717.00389     -7.6308026      222.19858      0.5          
   1429000  -761.76518     -196.51304      218.28569      0.5          
   1430000  -814.21462     -204.0259       221.89111      0.5          
   1431000  -734.39701     -122.35217      217.45194      0.5          
   1432000  -683.28671      3.4163068      218.98518      0.5          
   1433000  -736.83878      127.87663      222.11931      0.5          
   1434000  -820.02712      104.58592      216.91829      0.5          
   1435000  -701.12979      146.19206      221.40277      0.5          
   1436000  -668.75433     -229.58737      223.45323      0.5          
   1437000  -722.2608      -274.85244      219.76904      0.5          
   1438000  -797.00083      231.33619      217.60598      0.5          
   1439000  -784.10101     -25.102556      220.63156      0.5          
   1440000  -845.78403     -0.37636039     220.22494      0.5          
   1441000  -786.83514      282.46606      219.52071      0.5          
   1442000  -953.5073       53.331661      215.73964      0.5          
   1443000  -823.81171     -204.70136      218.72484      0.5          
   1444000  -934.58104      230.42401      217.25899      0.5          
   1445000  -824.70336      48.459281      220.48195      0.5          
   1446000  -814.61165      8.8147778      219.24358      0.5          
   1447000  -760.61323      87.027654      220.22355      0.5          
   1448000  -790.39669     -2.6740763      219.60386      0.5          
   1449000  -808.06868     -57.079861      220.2044       0.5          
   1450000  -788.49494     -204.76769      221.11948      0.5          
   1451000  -854.06519     -53.136869      218.1871       0.5          
   1452000  -815.32703     -14.339527      220.22614      0.5          
   1453000  -743.32028     -220.97791      222.49247      0.5          
   1454000  -794.93242      84.40353       220.4535       0.5          
   1455000  -695.51399     -69.697334      219.91862      0.5          
   1456000  -618.80931      67.336639      222.73163      0.5          
   1457000  -712.52987      351.59576      221.6412       0.5          
   1458000  -653.41611     -171.76931      224.9805       0.5          
   1459000  -829.02802     -130.95697      217.21332      0.5          
   1460000  -755.37056      94.746572      218.30837      0.5          
   1461000  -737.97549      96.510104      217.35991      0.5          
   1462000  -680.74909      2.1663517      222.49085      0.5          
   1463000  -769.29416     -96.574711      218.90055      0.5          
   1464000  -765.30469      54.766854      221.00557      0.5          
   1465000  -763.67822     -70.446586      221.51076      0.5          
   1466000  -699.58734      80.344539      222.46961      0.5          
   1467000  -797.45325      64.638231      217.32415      0.5          
   1468000  -732.90173     -14.205416      220.25788      0.5          
   1469000  -759.64068      154.68248      219.66376      0.5          
   1470000  -699.64987     -212.14023      221.63418      0.5          
   1471000  -759.80662     -25.666763      219.51571      0.5          
   1472000  -778.66798      169.29585      219.55865      0.5          
   1473000  -748.66522     -226.18265      221.49822      0.5          
   1474000  -821.18219     -7.0224152      220.10632      0.5          
   1475000  -866.21739      172.95638      220.75703      0.5          
   1476000  -819.1946      -38.436094      218.57088      0.5          
   1477000  -796.0021      -95.557963      220.87625      0.5          
   1478000  -769.50386     -376.42813      220.7068       0.5          
   1479000  -749.33132      206.00078      221.87269      0.5          
   1480000  -772.81917     -3.5012275      220.57932      0.5          
   1481000  -848.22335     -131.61576      221.66325      0.5          
   1482000  -754.99113      7.3294373      219.09236      0.5          
   1483000  -816.97847     -14.720912      220.52684      0.5          
   1484000  -822.19333      49.176502      219.69834      0.5          
   1485000  -653.18918      30.225441      222.90958      0.5          
   1486000  -821.26247      9.070171       221.36342      0.5          
   1487000  -790.30994     -83.018587      219.4532       0.5          
   1488000  -859.49952     -116.22196      215.37413      0.5          
   1489000  -755.63428     -21.987359      219.70902      0.5          
   1490000  -806.95719     -128.07614      220.36057      0.5          
   1491000  -647.29297     -36.872572      220.22942      0.5          
   1492000  -781.71069      68.167239      219.05737      0.5          
   1493000  -727.90082      61.16264       221.42337      0.5          
   1494000  -663.86904     -116.17406      223.5556       0.5          
   1495000  -732.44127      43.188997      218.70864      0.5          
   1496000  -750.49055      379.24689      221.72294      0.5          
   1497000  -655.81144     -233.40729      222.2589       0.5          
   1498000  -790.36207      44.161131      219.15048      0.5          
   1499000  -715.81649      272.92331      218.28632      0.5          
   1500000  -806.23599     -130.25411      216.62802      0.5          
   1501000  -697.71097      49.101536      220.64028      0.5          
   1502000  -727.45645      133.40771      220.62697      0.5          
   1503000  -751.11811      101.87669      221.87875      0.5          
   1504000  -662.05252      161.18423      221.41658      0.5          
   1505000  -776.29568      76.708209      219.18709      0.5          
   1506000  -828.95462      4.9420696      217.86706      0.5          
   1507000  -789.2241      -19.338196      220.37798      0.5          
   1508000  -824.38312     -64.201107      221.5427       0.5          
   1509000  -745.45625      217.62119      219.33699      0.5          
   1510000  -764.87666     -62.639561      221.71854      0.5          
   1511000  -732.72483     -166.11863      220.99858      0.5          
   1512000  -825.17084     -76.068045      218.63063      0.5          
   1513000  -817.98062     -211.64774      221.10557      0.5          
   1514000  -752.1566       69.119286      220.59808      0.5          
   1515000  -812.43123      269.97591      217.48494      0.5          
   1516000  -815.37141      69.893673      219.43817      0.5          
   1517000  -740.45693     -269.01772      219.53489      0.5          
   1518000  -709.12398     -43.520997      222.75524      0.5          
   1519000  -840.07614     -32.512289      218.69131      0.5          
   1520000  -764.68287      102.02112      220.7718       0.5          
   1521000  -713.35278      120.39991      221.66954      0.5          
   1522000  -733.00716     -21.798965      219.0341       0.5          
   1523000  -706.4857      -74.43597       220.33006      0.5          
   1524000  -712.31352      258.52406      219.5803       0.5          
   1525000  -671.81635      103.46999      221.99705      0.5          
   1526000  -830.3403      -149.58262      216.92982      0.5          
   1527000  -687.76331      111.96345      220.69474      0.5          
   1528000  -667.34482      163.31451      221.35691      0.5          
   1529000  -665.47805     -250.09081      221.15728      0.5          
   1530000  -686.63203     -129.3338       219.29149      0.5          
   1531000  -613.5585       84.383114      222.37494      0.5          
   1532000  -607.514       -2.2551751      221.39962      0.5          
   1533000  -739.15854      104.39701      220.46673      0.5          
   1534000  -706.61078     -31.172716      218.88286      0.5          
   1535000  -627.54818     -188.37911      219.59979      0.5          
   1536000  -656.12354      24.23673       222.12094      0.5          
   1537000  -764.19279     -65.975423      218.09387      0.5          
   1538000  -760.12279     -16.784501      214.3112       0.5          
   1539000  -643.49089     -170.39352      220.97651      0.5          
   1540000  -646.88558      49.28812       222.91675      0.5          
   1541000  -647.58553      53.700463      221.12619      0.5          
   1542000  -691.63684     -252.13025      221.91703      0.5          
   1543000  -791.31219     -154.48961      217.97213      0.5          
   1544000  -658.40851     -69.228583      220.78058      0.5          
   1545000  -730.22774     -98.39615       218.86968      0.5          
   1546000  -743.32789     -151.94788      221.34344      0.5          
   1547000  -711.84445     -230.41851      220.25968      0.5          
   1548000  -762.16078      65.2736        218.07948      0.5          
   1549000  -738.1265      -5.2733471      220.83986      0.5          
   1550000  -791.73346     -4.7889124      216.98459      0.5          
   1551000  -731.18339      168.9572       222.73209      0.5          
   1552000  -669.17224     -139.89159      221.58898      0.5          
   1553000  -687.63848      57.232198      223.94923      0.5          
   1554000  -767.42678     -33.231635      218.32833      0.5          
   1555000  -704.89945     -158.76535      222.75632      0.5          
   1556000  -780.88338      128.94134      221.55314      0.5          
   1557000  -774.31097      75.267165      221.69322      0.5          
   1558000  -783.04224      156.23088      217.00963      0.5          
   1559000  -720.49551      206.37196      220.84927      0.5          
   1560000  -850.87839     -89.809357      219.16104      0.5          
   1561000  -867.11292      64.03259       220.57721      0.5          
   1562000  -875.23239     -57.422784      216.37212      0.5          
   1563000  -695.67256      118.51409      223.05376      0.5          
   1564000  -834.64815     -83.119911      219.20776      0.5          
   1565000  -780.72261      241.96519      221.17322      0.5          
   1566000  -849.44977      100.49096      218.70089      0.5          
   1567000  -744.38087      39.839135      221.00802      0.5          
   1568000  -696.11632      119.63506      220.30465      0.5          
   1569000  -708.88892     -281.89962      221.43894      0.5          
   1570000  -729.43988     -233.30905      222.00712      0.5          
   1571000  -574.32158      138.03884      224.69901      0.5          
   1572000  -613.16212      5.6505836      219.48344      0.5          
   1573000  -708.26489     -161.74575      219.10981      0.5          
   1574000  -675.75782      14.896505      217.97414      0.5          
   1575000  -648.01837      175.55059      221.01232      0.5          
   1576000  -684.82861      82.077951      220.61439      0.5          
   1577000  -745.90003     -22.274135      218.69711      0.5          
   1578000  -622.58154     -201.08042      219.64446      0.5          
   1579000  -710.953        165.71472      217.59406      0.5          
   1580000  -711.14013     -162.48119      222.11083      0.5          
   1581000  -721.95703      83.302725      218.42279      0.5          
   1582000  -752.74114      166.74512      217.24908      0.5          
   1583000  -821.97634     -21.088382      215.35206      0.5          
   1584000  -780.78724     -12.629532      219.14155      0.5          
   1585000  -739.68148     -108.53116      215.74147      0.5          
   1586000  -678.65791      202.70596      218.9751       0.5          
   1587000  -763.87972      20.858121      219.27741      0.5          
   1588000  -742.20213      57.443304      220.39919      0.5          
   1589000  -750.41369     -28.773968      222.0004       0.5          
   1590000  -646.9418      -80.004584      221.85351      0.5          
   1591000  -799.29193      103.18903      216.33096      0.5          
   1592000  -607.00675     -229.46213      223.12091      0.5          
   1593000  -710.6898      -75.689086      220.91248      0.5          
   1594000  -739.0769       63.072321      219.65791      0.5          
   1595000  -715.50193     -132.14416      221.78244      0.5          
   1596000  -702.13863     -164.16625      219.4612       0.5          
   1597000  -738.31274      38.482117      218.98588      0.5          
   1598000  -725.33592      191.93289      219.67982      0.5          
   1599000  -818.03694     -78.755436      219.64376      0.5          
   1600000  -841.95356     -115.79953      215.15513      0.5          
   1601000  -852.82479      59.542172      214.5902       0.5          
   1602000  -727.32578      43.719337      220.44727      0.5          
   1603000  -726.21267      65.595726      222.87207      0.5          
   1604000  -842.08319      71.655163      217.62723      0.5          
   1605000  -708.64139     -276.22641      223.4231       0.5          
   1606000  -752.12673      159.02781      221.38453      0.5          
   1607000  -745.69107      275.01428      218.24557      0.5          
   1608000  -851.17196     -290.88368      217.07265      0.5          
   1609000  -851.68797     -43.153566      218.45069      0.5          
   1610000  -835.72816      255.41009      215.74307      0.5          
   1611000  -763.62957     -14.555444      220.8413       0.5          
   1612000  -773.80192     -299.14473      221.51273      0.5          
   1613000  -853.79974     -75.572352      216.99984      0.5          
   1614000  -685.4665       138.48063      220.54384      0.5          
   1615000  -625.33236     -26.905486      222.72115      0.5          
   1616000  -717.73542     -230.69693      219.99752      0.5          
   1617000  -685.20413     -67.683751      220.5382       0.5          
   1618000  -723.51011      59.59148       222.00517      0.5          
   1619000  -734.11413      266.25139      216.8218       0.5          
   1620000  -608.58482      149.62686      223.51798      0.5          
   1621000  -668.18276     -252.78724      220.79401      0.5          
   1622000  -668.25129      28.904137      220.33806      0.5          
   1623000  -781.12836      40.77088       217.45665      0.5          
   1624000  -677.48621      131.04744      224.07395      0.5          
   1625000  -619.97588      183.58695      222.35004      0.5          
   1626000  -617.4346       18.367057      221.35683      0.5          
   1627000  -678.70177     -57.891689      222.40384      0.5          
   1628000  -657.54906     -246.30727      222.58139      0.5          
   1629000  -713.11558      281.85003      220.47399      0.5          
   1630000  -639.76759     -159.26412      220.6382       0.5          
   1631000  -683.4423      -68.77842       220.67941      0.5          
   1632000  -721.93535     -5.435787       220.98619      0.5          
   1633000  -761.03937     -144.34083      219.17474      0.5          
   1634000  -621.89343      31.67966       226.21943      0.5          
   1635000  -669.83824     -64.800493      218.8661       0.5          
   1636000  -694.41773      181.35303      223.40806      0.5          
   1637000  -773.83608      49.045198      218.24007      0.5          
   1638000  -703.43323     -247.81811      220.04576      0.5          
   1639000  -742.90336     -115.43705      218.11614      0.5          
   1640000  -776.62984      65.505647      218.46851      0.5          
   1641000  -692.5998       125.10055      221.01237      0.5          
   1642000  -681.02979     -153.16551      221.61446      0.5          
   1643000  -804.02577     -227.7431       217.34685      0.5          
   1644000  -749.64276      43.907559      220.01701      0.5          
   1645000  -767.18621      76.685346      218.83719      0.5          
   1646000  -851.43238     -177.75006      218.08114      0.5          
   1647000  -799.22906     -249.76816      218.19525      0.5          
   1648000  -671.20545      1.6275764      220.08608      0.5          
   1649000  -743.98595      204.85606      218.47854      0.5          
   1650000  -756.29338     -137.39995      219.16342      0.5          
   1651000  -820.55482     -11.342471      217.02313      0.5          
   1652000  -710.27122      102.63914      221.88221      0.5          
   1653000  -647.86249      178.00872      222.89618      0.5          
   1654000  -692.98792      16.934051      221.98991      0.5          
   1655000  -753.443       -32.807602      218.89769      0.5          
   1656000  -738.60811      34.578063      219.33403      0.5          
   1657000  -736.76537     -290.25512      217.85199      0.5          
   1658000  -653.80525     -46.729179      220.83661      0.5          
   1659000  -585.07029     -2.220557       223.70253      0.5          
   1660000  -746.99467     -44.249106      222.48317      0.5          
   1661000  -754.9253      -119.44057      219.17745      0.5          
   1662000  -791.55887     -152.73017      219.49646      0.5          
   1663000  -686.88944     -88.798499      219.64397      0.5          
   1664000  -672.28514      213.31421      218.37695      0.5          
   1665000  -737.45304     -237.75063      221.45273      0.5          
   1666000  -654.74712      237.20474      223.27233      0.5          
   1667000  -766.14037      16.242156      220.36379      0.5          
   1668000  -681.89684     -152.77082      222.63781      0.5          
   1669000  -692.01595      143.89583      222.222        0.5          
   1670000  -711.49878      150.81894      219.85137      0.5          
   1671000  -703.06715     -39.662844      219.06751      0.5          
   1672000  -565.18634      8.6524584      222.75268      0.5          
   1673000  -592.61633      238.76644      222.54451      0.5          
   1674000  -694.12703      77.720388      219.80073      0.5          
   1675000  -660.69343     -128.70323      221.43177      0.5          
   1676000  -665.24382     -223.97325      222.59332      0.5          
   1677000  -774.84172     -98.620499      218.44148      0.5          
   1678000  -787.0345      -84.208597      218.92932      0.5          
   1679000  -721.19155     -70.014588      218.56549      0.5          
   1680000  -662.78412      2.7424168      220.66017      0.5          
   1681000  -697.62795     -111.89786      220.44167      0.5          
   1682000  -672.39308     -22.892848      220.09281      0.5          
   1683000  -660.70356      202.92727      219.22668      0.5          
   1684000  -751.26833     -107.16794      217.17424      0.5          
   1685000  -662.39253      43.485096      219.1723       0.5          
   1686000  -760.06223      15.462044      214.99434      0.5          
   1687000  -741.24702     -133.9267       218.86678      0.5          
   1688000  -704.06908      166.39735      218.38358      0.5          
   1689000  -589.44216     -102.65126      223.96092      0.5          
   1690000  -701.55748     -240.33686      221.65254      0.5          
   1691000  -584.79288      213.18532      224.99727      0.5          
   1692000  -779.34937     -62.460748      219.77038      0.5          
   1693000  -797.53516     -314.67228      219.4175       0.5          
   1694000  -707.43781     -19.989406      218.96616      0.5          
   1695000  -634.42081      305.75341      223.44552      0.5          
   1696000  -809.03579      41.234417      218.19546      0.5          
   1697000  -725.74997     -67.786456      218.6802       0.5          
   1698000  -607.59199     -61.590254      224.4707       0.5          
   1699000  -711.26692      143.84248      222.28245      0.5          
   1700000  -850.57366     -26.116414      217.08228      0.5          
   1701000  -783.11926     -223.28204      217.33228      0.5          
   1702000  -693.74982      62.333812      222.09362      0.5          
   1703000  -606.37096     -202.23734      223.42179      0.5          
   1704000  -755.13144     -70.790403      219.68915      0.5          
   1705000  -759.11943      95.862402      219.79203      0.5          
   1706000  -742.29717     -187.21807      222.16881      0.5          
   1707000  -757.06393      29.438295      219.31393      0.5          
   1708000  -798.40604      178.43089      216.31912      0.5          
   1709000  -713.44481     -73.998791      218.62731      0.5          
   1710000  -805.99233     -162.51342      216.61977      0.5          
   1711000  -594.43353     -75.012801      224.18187      0.5          
   1712000  -661.76667     -110.61274      222.20604      0.5          
   1713000  -839.59789     -14.747674      218.24254      0.5          
   1714000  -745.09546     -176.87736      218.32977      0.5          
   1715000  -754.08938     -171.99745      216.08486      0.5          
   1716000  -578.138        56.440161      222.09915      0.5          
   1717000  -664.62717      185.56838      220.29732      0.5          
   1718000  -670.79936     -160.47244      219.7736       0.5          
   1719000  -639.05111     -22.585532      219.68307      0.5          
   1720000  -637.54906      27.505085      217.90414      0.5          
   1721000  -641.01232      22.027513      221.18985      0.5          
   1722000  -735.39343      181.38464      217.78351      0.5          
   1723000  -770.42703     -123.97784      215.57292      0.5          
   1724000  -675.62956     -372.89451      218.8641       0.5          
   1725000  -799.83943      78.334224      216.334        0.5          
   1726000  -676.48755     -60.11007       220.23653      0.5          
   1727000  -592.68533     -268.86401      220.57159      0.5          
   1728000  -597.41684     -6.1340651      219.78981      0.5          
   1729000  -598.7746       92.009746      222.49758      0.5          
   1730000  -609.78729      23.298221      223.11671      0.5          
   1731000  -628.99442     -52.579171      220.67167      0.5          
   1732000  -693.90525      342.56918      220.07197      0.5          
   1733000  -715.88194      43.275988      219.02944      0.5          
   1734000  -663.25905      61.147532      221.74121      0.5          
   1735000  -794.78356      44.341453      219.87695      0.5          
   1736000  -659.59257     -100.57463      221.47709      0.5          
   1737000  -740.67688     -73.85483       219.72382      0.5          
   1738000  -711.7823      -148.91228      220.89822      0.5          
   1739000  -729.06238      67.761385      219.04998      0.5          
   1740000  -777.03971     -42.730009      217.23279      0.5          
   1741000  -839.93131      51.146323      219.92407      0.5          
   1742000  -778.10274      277.84324      217.76688      0.5          
   1743000  -771.49937     -33.670877      217.55836      0.5          
   1744000  -700.46813      0.96793323     217.81975      0.5          
   1745000  -755.06928      117.68516      219.27549      0.5          
   1746000  -680.83021      58.137276      221.33744      0.5          
   1747000  -665.18032      21.963437      225.13175      0.5          
   1748000  -790.3229      -103.91901      218.12149      0.5          
   1749000  -885.19572      174.28291      218.92466      0.5          
   1750000  -867.03294      136.30409      217.46932      0.5          
   1751000  -921.01112     -127.35976      217.29004      0.5          
   1752000  -781.84604      18.13184       223.60632      0.5          
   1753000  -731.57552     -88.711066      221.9726       0.5          
   1754000  -737.59088     -302.63664      218.76643      0.5          
   1755000  -759.80433     -6.9918458      222.0661       0.5          
   1756000  -783.33328      138.15379      220.47394      0.5          
   1757000  -687.25087     -142.30395      221.37862      0.5          
   1758000  -684.70882      28.008186      218.11194      0.5          
   1759000  -775.4936       344.57047      220.26495      0.5          
   1760000  -679.83842      51.688899      217.94802      0.5          
   1761000  -609.84553     -61.649386      220.34358      0.5          
   1762000  -647.52078     -204.27962      218.51536      0.5          
   1763000  -746.25109     -196.52047      220.1921       0.5          
   1764000  -619.97673      191.65295      221.63161      0.5          
   1765000  -619.40486      73.796752      219.63712      0.5          
   1766000  -740.8368       8.0329273      220.88475      0.5          
   1767000  -797.91652     -157.6322       215.24854      0.5          
   1768000  -776.53118      171.96252      218.48566      0.5          
   1769000  -734.17371      1.0048912      218.27625      0.5          
   1770000  -641.52743     -230.71302      224.90141      0.5          
   1771000  -692.54474      127.63406      218.88917      0.5          
   1772000  -627.79925      145.30038      221.66439      0.5          
   1773000  -682.29512      118.88576      220.94826      0.5          
   1774000  -722.71654      55.515996      218.9743       0.5          
   1775000  -688.89473     -105.3631       222.03915      0.5          
   1776000  -684.26552     -265.94475      221.96743      0.5          
   1777000  -840.59253     -18.324135      215.37399      0.5          
   1778000  -696.25294     -19.924834      220.77137      0.5          
   1779000  -644.82653      263.04346      223.29705      0.5          
   1780000  -635.54302      78.710407      220.4549       0.5          
   1781000  -706.01218      31.119544      220.50508      0.5          
   1782000  -688.0434       5.4644641      218.27244      0.5          
   1783000  -719.80476     -59.445109      218.81465      0.5          
   1784000  -727.29322     -252.4646       219.0335       0.5          
   1785000  -670.08116      109.43806      221.76888      0.5          
   1786000  -699.69522      266.05968      219.6508       0.5          
   1787000  -669.47402     -151.47197      222.81143      0.5          
   1788000  -556.11441      1.2799411      226.22362      0.5          
   1789000  -789.35704     -50.847245      218.54673      0.5          
   1790000  -788.51235      30.875376      219.76349      0.5          
   1791000  -713.69374      200.33428      221.55395      0.5          
   1792000  -718.00044     -289.35875      221.78981      0.5          
   1793000  -780.25325      81.116527      219.1444       0.5          
   1794000  -710.20437     -0.56498091     221.54093      0.5          
   1795000  -695.43836     -55.433642      222.92106      0.5          
   1796000  -876.10999     -7.1049857      217.31681      0.5          
   1797000  -817.29673      301.00355      217.04077      0.5          
   1798000  -723.64288     -50.045805      223.49161      0.5          
   1799000  -785.3647       108.01084      221.02836      0.5          
   1800000  -925.57257      104.45893      220.88056      0.5          
   1801000  -868.44103      59.044421      219.05314      0.5          
   1802000  -826.63265     -192.10041      218.60758      0.5          
   1803000  -751.24367     -50.730744      222.98203      0.5          
   1804000  -739.36441      304.91753      220.02439      0.5          
   1805000  -773.09131      147.33663      222.50026      0.5          
   1806000  -729.34865     -120.43226      222.92648      0.5          
   1807000  -799.39728      180.58085      221.34486      0.5          
   1808000  -857.83465      196.1447       216.5169       0.5          
   1809000  -764.85987      6.2043194      221.64791      0.5          
   1810000  -863.01041      93.26654       218.50617      0.5          
   1811000  -786.1041       27.510962      219.62695      0.5          
   1812000  -714.56556      42.642686      219.83901      0.5          
   1813000  -707.67939     -136.14631      219.51835      0.5          
   1814000  -765.04288     -184.064        216.39059      0.5          
   1815000  -699.23538     -52.632107      220.5245       0.5          
   1816000  -805.88388     -190.32237      218.58264      0.5          
   1817000  -839.63783     -36.424742      216.53669      0.5          
   1818000  -620.91173      203.89569      220.67453      0.5          
   1819000  -707.56717     -9.4807176      221.15532      0.5          
   1820000  -601.84404      4.5190538      223.80245      0.5          
   1821000  -765.07754      183.66239      217.69432      0.5          
   1822000  -641.75654     -5.3779139      221.20793      0.5          
   1823000  -659.77156     -161.94417      218.47724      0.5          
   1824000  -697.85133     -152.94309      222.85822      0.5          
   1825000  -748.2302       92.953414      217.71519      0.5          
   1826000  -749.16975      142.8324       219.65981      0.5          
   1827000  -735.46668     -214.57477      220.75792      0.5          
   1828000  -643.32482     -140.6237       221.17862      0.5          
   1829000  -749.79053      21.501256      222.05894      0.5          
   1830000  -755.72003     -39.629232      220.23217      0.5          
   1831000  -729.20048      161.29709      221.5471       0.5          
   1832000  -880.01253      97.560147      216.56885      0.5          
   1833000  -729.40698      6.2745816      221.95955      0.5          
   1834000  -843.91108     -310.64775      217.08618      0.5          
   1835000  -939.75981     -13.053837      218.54333      0.5          
   1836000  -804.58894      107.25265      220.67848      0.5          
   1837000  -830.94176      6.4323357      221.64084      0.5          
   1838000  -877.66867      202.93468      219.1123       0.5          
   1839000  -886.49449      215.77809      219.62941      0.5          
   1840000  -786.61176     -146.79926      220.7413       0.5          
   1841000  -789.15651      43.127083      219.22466      0.5          
   1842000  -937.36417      128.95442      217.58336      0.5          
   1843000  -934.41653     -63.794175      217.07151      0.5          
   1844000  -835.51326      117.2871       221.03065      0.5          
   1845000  -762.44986      22.295049      223.20094      0.5          
   1846000  -886.32937      96.767234      217.47856      0.5          
   1847000  -822.45871     -74.287752      221.90701      0.5          
   1848000  -777.39509      71.715126      216.89386      0.5          
   1849000  -798.84344      192.58731      218.53444      0.5          
   1850000  -802.81742     -96.74003       218.07845      0.5          
   1851000  -701.36346     -109.74139      221.87701      0.5          
   1852000  -710.40553     -71.871207      220.28762      0.5          
   1853000  -848.80936      232.09385      217.85419      0.5          
   1854000  -722.55247     -229.82632      221.11232      0.5          
   1855000  -625.57122     -47.251971      221.2227       0.5          
   1856000  -708.37304     -82.164687      218.76056      0.5          
   1857000  -616.84637      2.8292577      218.59202      0.5          
   1858000  -620.60108     -39.733476      222.67696      0.5          
   1859000  -650.56164     -210.24009      216.91927      0.5          
   1860000  -657.88881     -170.20584      222.39081      0.5          
   1861000  -607.83867      123.02631      219.28028      0.5          
   1862000  -605.771       -2.5055709      220.68467      0.5          
   1863000  -532.70061     -447.57675      223.20184      0.5          
   1864000  -652.19654     -33.04129       218.42328      0.5          
   1865000  -611.02325      263.80955      220.61622      0.5          
   1866000  -596.21201     -168.08951      223.23276      0.5          
   1867000  -626.87486     -168.86652      219.93197      0.5          
   1868000  -760.56049     -10.862044      217.90339      0.5          
   1869000  -629.75396      261.72216      221.61132      0.5          
   1870000  -765.05436     -64.686652      220.73699      0.5          
   1871000  -598.9965      -224.20187      222.08487      0.5          
   1872000  -659.31273      142.65144      223.01585      0.5          
   1873000  -740.30593      220.84039      220.66654      0.5          
   1874000  -720.0018      -88.439032      218.25015      0.5          
   1875000  -754.75705     -175.0644       218.71788      0.5          
   1876000  -730.64189      54.953722      220.89936      0.5          
   1877000  -718.35278     -30.366425      219.87634      0.5          
   1878000  -730.61034      110.3012       220.43483      0.5          
   1879000  -667.14174      73.65183       219.45007      0.5          
   1880000  -780.36982     -99.706029      219.06524      0.5          
   1881000  -833.29088     -296.81764      218.66924      0.5          
   1882000  -766.57795      61.831359      222.34479      0.5          
   1883000  -666.21737      198.88148      223.19993      0.5          
   1884000  -797.29761      70.907089      217.91472      0.5          
   1885000  -772.18196     -116.15955      220.90263      0.5          
   1886000  -724.80954     -396.28805      220.24371      0.5          
   1887000  -716.44616      31.104978      225.16309      0.5          
   1888000  -739.99624     -46.213786      220.78746      0.5          
   1889000  -702.30235      103.19868      221.63983      0.5          
   1890000  -792.71134     -7.2148612      222.02311      0.5          
   1891000  -700.78073      128.89113      223.57629      0.5          
   1892000  -798.30417     -29.394301      219.36133      0.5          
   1893000  -750.43214      123.43154      220.90019      0.5          
   1894000  -664.1188      -165.83488      223.91426      0.5          
   1895000  -740.33254     -353.86978      219.60525      0.5          
   1896000  -737.91721     -29.261976      221.43236      0.5          
   1897000  -756.36636      255.6141       219.67844      0.5          
   1898000  -754.54715     -88.016328      221.47351      0.5          
   1899000  -822.33527     -271.53165      218.42695      0.5          
   1900000  -814.88045      71.594871      220.82157      0.5          
   1901000  -828.8083       90.332903      217.10422      0.5          
   1902000  -798.47595      187.26321      219.17114      0.5          
   1903000  -763.09257      111.83145      220.31223      0.5          
   1904000  -716.49866     -231.17834      221.94787      0.5          
   1905000  -717.81154     -172.29848      219.87442      0.5          
   1906000  -662.01727      199.58613      220.93806      0.5          
   1907000  -744.86484      81.973132      219.41837      0.5          
   1908000  -777.92871     -112.95093      219.87541      0.5          
   1909000  -727.67475     -44.127842      218.42588      0.5          
   1910000  -711.6229       16.410762      221.18221      0.5          
   1911000  -669.50862     -61.972212      220.06122      0.5          
   1912000  -716.08257     -128.4793       221.55244      0.5          
   1913000  -630.51218     -26.050697      222.32108      0.5          
   1914000  -614.47955      114.98428      224.22657      0.5          
   1915000  -691.25848     -208.38376      219.21246      0.5          
   1916000  -692.82545     -48.972126      222.70814      0.5          
   1917000  -707.63573      6.0411202      217.69555      0.5          
   1918000  -734.53343      21.120522      219.24531      0.5          
   1919000  -683.19729     -16.260355      220.99774      0.5          
   1920000  -751.3556       76.591319      217.3079       0.5          
   1921000  -747.57731      109.75696      218.13962      0.5          
   1922000  -671.62445      57.522361      218.48663      0.5          
   1923000  -634.85775     -96.464076      222.98526      0.5          
   1924000  -746.96486      115.19163      216.40757      0.5          
   1925000  -681.3722      -75.472959      221.72773      0.5          
   1926000  -633.51825     -348.55618      222.98752      0.5          
   1927000  -716.4225       118.42007      221.32569      0.5          
   1928000  -727.19152      96.252728      222.53745      0.5          
   1929000  -768.16635     -264.90562      221.35072      0.5          
   1930000  -857.21723      105.5507       216.7926       0.5          
   1931000  -804.82412     -3.5234059      220.34178      0.5          
   1932000  -799.90623     -158.23675      220.62747      0.5          
   1933000  -808.72994      20.775866      218.87971      0.5          
   1934000  -740.79426      304.29955      221.31192      0.5          
   1935000  -771.58485      38.79231       220.99484      0.5          
   1936000  -817.28043      76.897232      216.64368      0.5          
   1937000  -846.40695     -78.649924      218.17609      0.5          
   1938000  -919.56752     -221.10625      217.30436      0.5          
   1939000  -853.56426      86.797785      221.87245      0.5          
   1940000  -895.62786      77.060479      219.14874      0.5          
   1941000  -912.23577     -202.09133      215.92487      0.5          
   1942000  -807.11816     -124.25487      217.31691      0.5          
   1943000  -731.95526      191.76499      221.75791      0.5          
   1944000  -742.67336      133.87229      220.13318      0.5          
   1945000  -706.92855     -96.996415      219.77133      0.5          
   1946000  -688.80369     -109.12757      217.67497      0.5          
   1947000  -732.64495      132.10115      220.78817      0.5          
   1948000  -698.28474     -67.357435      217.80683      0.5          
   1949000  -695.80205      120.3603       218.47164      0.5          
   1950000  -671.65641      118.20163      219.58082      0.5          
   1951000  -721.55817      35.329762      218.9309       0.5          
   1952000  -619.3924       75.710622      222.48377      0.5          
   1953000  -616.3833       128.24132      219.7763       0.5          
   1954000  -510.69665      121.03767      222.40566      0.5          
   1955000  -655.85385     -39.098607      219.33817      0.5          
   1956000  -655.90454     -356.8123       218.12294      0.5          
   1957000  -624.73211      253.22287      221.54419      0.5          
   1958000  -670.54162     -180.13842      217.80469      0.5          
   1959000  -648.92608     -84.177005      220.37017      0.5          
   1960000  -610.74749      176.16678      217.75926      0.5          
   1961000  -586.91708      11.293385      221.72749      0.5          
   1962000  -720.45952      96.471407      219.66763      0.5          
   1963000  -756.6075       360.98371      217.89023      0.5          
   1964000  -685.24633     -48.858925      222.95058      0.5          
   1965000  -743.03032     -78.02551       220.64364      0.5          
   1966000  -652.63917      138.74664      222.56251      0.5          
   1967000  -634.84112     -199.19598      224.54302      0.5          
   1968000  -736.13319     -151.82368      222.08706      0.5          
   1969000  -760.72168      97.264181      221.09249      0.5          
   1970000  -706.87188     -79.938396      222.33044      0.5          
   1971000  -833.72518      66.573472      219.13267      0.5          
   1972000  -842.25165      169.93517      216.48987      0.5          
   1973000  -757.78708      10.025427      220.91734      0.5          
   1974000  -779.15862      74.281925      223.10755      0.5          
   1975000  -802.82715     -233.20579      222.5269       0.5          
   1976000  -663.20222      67.592145      224.01772      0.5          
   1977000  -784.33559     -165.34065      220.7295       0.5          
   1978000  -663.44486      50.558002      224.37374      0.5          
   1979000  -741.52892      119.50159      220.13967      0.5          
   1980000  -711.26075     -16.337509      222.00996      0.5          
   1981000  -698.18114     -59.378787      221.28759      0.5          
   1982000  -712.56165     -1.4456706      224.27287      0.5          
   1983000  -730.30534      137.64953      220.36178      0.5          
   1984000  -600.03125      107.62851      222.34026      0.5          
   1985000  -709.7625       76.851139      220.63996      0.5          
   1986000  -659.10356      164.28599      222.26341      0.5          
   1987000  -698.78707     -34.855975      217.12858      0.5          
   1988000  -527.05956     -140.65525      223.2763       0.5          
   1989000  -599.77522     -36.305847      218.5486       0.5          
   1990000  -648.03734     -12.002697      215.80254      0.5          
   1991000  -537.59749     -44.857122      224.70219      0.5          
   1992000  -568.4259      -10.926209      220.03202      0.5          
   1993000  -526.15039      206.17751      221.22929      0.5          
   1994000  -521.61757     -295.21257      217.99611      0.5          
   1995000  -534.34919     -10.74485       220.14636      0.5          
   1996000  -600.55692      312.91265      220.96808      0.5          
   1997000  -690.96997      223.02453      218.37067      0.5          
   1998000  -713.43651     -80.040072      218.5054       0.5          
   1999000  -649.69292     -84.501088      218.67037      0.5          
   2000000  -637.93107     -184.99464      222.10121      0.5          
Loop time of 7634.09 on 24 procs for 2000000 steps with 7050 atoms

Performance: 11.318 ns/day, 2.121 hours/ns, 261.983 timesteps/s, 1.847 Matom-step/s
99.4% CPU use with 24 MPI tasks x 1 OpenMP threads

MPI task timing breakdown:
Section |  min time  |  avg time  |  max time  |%varavg| %total
---------------------------------------------------------------
Pair    | 2644       | 3573.7     | 5792.8     |1609.8 | 46.81
Bond    | 15.092     | 18.483     | 25.226     |  98.7 |  0.24
Kspace  | 1361.2     | 3466.7     | 4405.7     |1549.9 | 45.41
Neigh   | 49.125     | 49.353     | 49.719     |   2.4 |  0.65
Comm    | 302.89     | 406.54     | 504.34     | 324.1 |  5.33
Output  | 0.11954    | 0.20121    | 0.20914    |   3.8 |  0.00
Modify  | 87.192     | 107.97     | 135.88     | 141.5 |  1.41
Other   |            | 11.07      |            |       |  0.14

Nlocal:         293.75 ave         502 max         198 min
Histogram: 8 7 1 0 0 2 1 2 2 1
Nghost:        5709.54 ave        6235 max        4673 min
Histogram: 4 0 2 0 2 0 0 1 5 10
Neighs:         128031 ave      229965 max       90716 min
Histogram: 5 10 3 2 0 0 0 1 2 1

Total # of neighbors = 3072752
Ave neighs/atom = 435.85135
Ave special neighs/atom = 2
Neighbor list builds = 8296
Dangerous builds = 0

unfix           NVT
run             ${Nnvt}
run             2000000
PPPM initialization ...
  using 12-bit tables for long-range coulomb (src/kspace.cpp:342)
  G vector (1/distance) = 0.20169663
  grid = 24 24 80
  stencil order = 5
  estimated absolute RMS force accuracy = 0.00286774
  estimated relative force accuracy = 8.6361139e-06
  using single precision FFTW3
  3d grid and FFT values/proc = 13718 4608
Generated 1 of 1 mixed pair_coeff terms from arithmetic mixing rule
Last active /omp style is kspace_style pppm/omp
Per MPI rank memory allocation (min/avg/max) = 8.339 | 9.001 | 9.736 Mbytes
   Step         TotEng         Press           Temp            Dt      
   2000000  -637.93107     -184.99464      222.10121      0.5          
   2001000  -638.01253     -263.94593      221.87644      0.5          
   2002000  -637.911        15.66517       222.70661      0.5          
   2003000  -637.60829      68.973691      222.73787      0.5          
   2004000  -637.97328     -20.088424      220.11192      0.5          
   2005000  -637.94413      83.234869      220.75151      0.5          
   2006000  -638.16888      15.707491      223.20002      0.5          
   2007000  -637.78969      3.8687697      221.05207      0.5          
   2008000  -637.66698      12.393642      220.84768      0.5          
   2009000  -638.38966      16.458857      223.99328      0.5          
   2010000  -638.3744      -194.01973      222.25186      0.5          
   2011000  -638.0084       108.39575      222.56052      0.5          
   2012000  -637.60661     -19.331985      224.06687      0.5          
   2013000  -637.82871      108.4449       224.76288      0.5          
   2014000  -637.87196     -47.009007      224.55784      0.5          
   2015000  -637.62227      167.26048      221.99384      0.5          
   2016000  -637.65256     -25.870423      221.64987      0.5          
   2017000  -637.52306     -204.00184      220.96263      0.5          
   2018000  -637.97379      34.776828      223.16349      0.5          
   2019000  -637.6131       35.965813      225.6007       0.5          
   2020000  -637.38353     -266.80001      219.14823      0.5          
   2021000  -637.36258     -91.982495      222.41011      0.5          
   2022000  -637.5559       10.011057      219.99364      0.5          
   2023000  -637.32978      164.87817      220.06248      0.5          
   2024000  -637.16512     -123.04569      217.16076      0.5          
   2025000  -637.07032     -235.80195      220.45076      0.5          
   2026000  -636.97652      126.96418      219.47182      0.5          
   2027000  -637.17054     -46.46986       219.22857      0.5          
   2028000  -636.89359     -133.32715      220.67272      0.5          
   2029000  -636.88296      120.68603      216.8938       0.5          
   2030000  -637.10862      251.02801      220.41538      0.5          
   2031000  -636.91367     -187.52401      220.22132      0.5          
   2032000  -636.86916      68.196183      217.66945      0.5          
   2033000  -636.89755     -20.879677      217.21526      0.5          
   2034000  -637.20263     -180.17986      219.16089      0.5          
   2035000  -637.37237     -276.14269      219.16819      0.5          
   2036000  -636.87534     -266.86194      218.50151      0.5          
   2037000  -636.54579      313.24119      217.58332      0.5          
   2038000  -637.11791     -251.33018      219.18681      0.5          
   2039000  -637.12479     -184.19252      221.51995      0.5          
   2040000  -637.16932      348.95487      221.3647       0.5          
   2041000  -636.81513      166.90588      220.91046      0.5          
   2042000  -636.98298      53.98306       221.64948      0.5          
   2043000  -637.35456      156.68008      223.82137      0.5          
   2044000  -636.94854      364.37032      223.15981      0.5          
   2045000  -636.63535     -211.55439      221.62227      0.5          
   2046000  -636.87007      56.458204      222.90182      0.5          
   2047000  -636.61851      430.27357      221.10846      0.5          
   2048000  -636.7785       73.560042      222.76885      0.5          
   2049000  -636.59306     -15.711864      219.88439      0.5          
   2050000  -636.74339     -61.198026      224.41161      0.5          
   2051000  -636.83963     -5.0954502      223.08924      0.5          
   2052000  -636.79489      374.96322      220.85618      0.5          
   2053000  -636.76987      28.356178      220.36924      0.5          
   2054000  -637.04263      20.410663      220.80563      0.5          
   2055000  -637.00074     -118.00438      220.05558      0.5          
   2056000  -637.02877     -303.34411      221.1536       0.5          
   2057000  -636.79573     -306.87603      219.50278      0.5          
   2058000  -636.86873      66.357941      224.50164      0.5          
   2059000  -636.6553      -8.9451746      219.74789      0.5          
   2060000  -636.69256     -4.4044685      218.98883      0.5          
   2061000  -636.61208      148.6011       220.33146      0.5          
   2062000  -636.7836       64.7157        220.24084      0.5          
   2063000  -636.91177      65.529489      221.58847      0.5          
   2064000  -636.61863      105.96874      219.91378      0.5          
   2065000  -636.68039     -191.37298      216.83934      0.5          
   2066000  -636.85011      28.931564      222.02481      0.5          
   2067000  -636.84028      197.14757      221.36401      0.5          
   2068000  -636.73926     -22.560216      221.99771      0.5          
   2069000  -636.5044      -132.26302      221.07784      0.5          
   2070000  -636.3477       70.883616      218.35451      0.5          
   2071000  -636.43196      54.380988      218.8208       0.5          
   2072000  -636.65767     -25.251687      221.00242      0.5          
   2073000  -636.58043     -259.64759      220.62302      0.5          
   2074000  -636.31124     -230.60332      224.142        0.5          
   2075000  -636.30926     -89.928921      220.35005      0.5          
   2076000  -636.50058     -24.125508      220.07481      0.5          
   2077000  -636.43507      153.72482      222.71468      0.5          
   2078000  -636.51001      111.27632      223.1163       0.5          
   2079000  -636.69977      42.848486      223.56154      0.5          
   2080000  -636.64253     -18.076067      222.50669      0.5          
   2081000  -636.77369     -44.203518      224.83084      0.5          
   2082000  -636.55583     -97.102201      219.358        0.5          
   2083000  -636.42983      198.41188      220.35733      0.5          
   2084000  -636.78364     -87.616586      223.79573      0.5          
   2085000  -636.99265     -264.41304      221.61241      0.5          
   2086000  -636.83235     -62.350341      223.8035       0.5          
   2087000  -636.533        73.376191      221.7926       0.5          
   2088000  -636.69647      82.667847      222.05537      0.5          
   2089000  -636.79096      70.366031      222.62422      0.5          
   2090000  -637.13783     -50.266384      224.46349      0.5          
   2091000  -637.14265     -14.855156      220.10602      0.5          
   2092000  -636.92256      61.166097      218.7139       0.5          
   2093000  -636.80536      175.99097      221.97697      0.5          
   2094000  -637.25489      3.6157326      221.30511      0.5          
   2095000  -637.39123     -28.13377       222.51072      0.5          
   2096000  -636.90264      43.329837      220.24236      0.5          
   2097000  -636.56886     -163.25976      215.98964      0.5          
   2098000  -637.02369      46.787062      222.19863      0.5          
   2099000  -637.26216     -122.47454      219.56475      0.5          
   2100000  -636.93208      129.51177      220.68835      0.5          
   2101000  -636.51001     -53.686695      219.92713      0.5          
   2102000  -636.41307     -4.6922933      220.36249      0.5          
   2103000  -636.64067     -39.670558      219.65224      0.5          
   2104000  -636.9684      -21.078895      221.8925       0.5          
   2105000  -636.63306      27.862138      222.70281      0.5          
   2106000  -636.3552      -45.112058      220.74348      0.5          
   2107000  -636.76966      166.593        221.71435      0.5          
   2108000  -636.53295     -68.186833      222.25041      0.5          
   2109000  -636.49843     -400.89172      224.78945      0.5          
   2110000  -636.68211      120.94443      221.15073      0.5          
   2111000  -636.6075       375.82308      221.75887      0.5          
   2112000  -636.4328      -219.82468      219.70425      0.5          
   2113000  -636.72311     -81.776015      220.83536      0.5          
   2114000  -636.84396      210.11547      223.36319      0.5          
   2115000  -636.62862     -415.62565      221.27718      0.5          
   2116000  -636.75536     -81.274636      225.11826      0.5          
   2117000  -636.76246      214.34981      222.52047      0.5          
   2118000  -636.45834     -200.28882      220.57224      0.5          
   2119000  -636.5013       43.256427      221.1291       0.5          
   2120000  -636.34953     -232.15312      221.23289      0.5          
   2121000  -636.32053     -212.56349      223.56253      0.5          
   2122000  -636.36583      68.446358      220.67107      0.5          
   2123000  -636.33307     -181.20514      222.81954      0.5          
   2124000  -635.99088     -63.905909      220.87304      0.5          
   2125000  -636.20147     -56.735023      223.81103      0.5          
   2126000  -636.36022      1.4171898      220.22688      0.5          
   2127000  -636.13372     -164.3759       221.22733      0.5          
   2128000  -636.03418     -107.60297      221.42376      0.5          
   2129000  -636.11045      26.068596      221.36923      0.5          
   2130000  -636.45178      185.26299      223.65406      0.5          
   2131000  -636.42385     -69.946566      223.22205      0.5          
   2132000  -636.00543      203.63298      222.05843      0.5          
   2133000  -636.10315      217.31885      221.74225      0.5          
   2134000  -636.05446     -41.131332      222.32021      0.5          
   2135000  -636.2104       76.8866        222.97944      0.5          
   2136000  -636.11871      246.63335      223.3594       0.5          
   2137000  -636.22373      5.7915951      225.19149      0.5          
   2138000  -636.49248     -96.420821      225.68558      0.5          
   2139000  -636.2781      -44.975631      222.87954      0.5          
   2140000  -636.03438      13.65912       219.48854      0.5          
   2141000  -636.17707      131.37587      222.17836      0.5          
   2142000  -636.27517      69.989207      223.06811      0.5          
   2143000  -636.30238     -181.26336      221.82866      0.5          
   2144000  -636.33801     -23.769636      223.72353      0.5          
   2145000  -636.29424     -18.176591      222.7421       0.5          
   2146000  -635.93849     -251.27448      221.8129       0.5          
   2147000  -635.77166      300.2758       222.57741      0.5          
   2148000  -635.89049      261.21098      220.47297      0.5          
   2149000  -636.11099     -190.46284      223.12592      0.5          
   2150000  -635.8781      -290.5703       224.4007       0.5          
   2151000  -635.75652      188.11478      219.29369      0.5          
   2152000  -635.49985      17.809962      222.54714      0.5          
   2153000  -635.69199     -75.045445      220.21037      0.5          
   2154000  -635.70049     -148.77216      220.44078      0.5          
   2155000  -635.48642      32.215577      218.16661      0.5          
   2156000  -635.29997     -81.498222      220.36508      0.5          
   2157000  -635.41965     -14.824281      220.33485      0.5          
   2158000  -635.06443      20.058114      219.42004      0.5          
   2159000  -635.28117      62.810259      221.11414      0.5          
   2160000  -635.14869     -37.882544      219.86994      0.5          
   2161000  -635.08635     -178.65039      220.11829      0.5          
   2162000  -635.34742     -71.162342      219.65624      0.5          
   2163000  -635.34352      117.24474      221.04036      0.5          
   2164000  -635.54284     -101.85987      221.08153      0.5          
   2165000  -635.42675     -13.751206      220.08175      0.5          
   2166000  -635.23955      72.240169      222.86703      0.5          
   2167000  -635.58573      88.318651      224.04509      0.5          
   2168000  -635.57752     -293.75999      226.08224      0.5          
   2169000  -635.89201     -5.5987312      220.13019      0.5          
   2170000  -635.47158      206.39154      220.76637      0.5          
   2171000  -635.52597     -23.53042       222.58002      0.5          
   2172000  -635.39116      66.316907      219.96538      0.5          
   2173000  -635.52673      169.56834      222.56387      0.5          
   2174000  -635.40146      104.26594      225.45819      0.5          
   2175000  -635.1032       15.218444      221.37746      0.5          
   2176000  -635.2284      -28.161402      223.26474      0.5          
   2177000  -634.90079      312.50746      223.05679      0.5          
   2178000  -635.23814      120.53124      223.40685      0.5          
   2179000  -635.26286     -106.82995      223.49677      0.5          
   2180000  -634.92613      148.92844      221.82639      0.5          
   2181000  -635.19119     -59.62122       223.39338      0.5          
   2182000  -635.21938      2.859377       221.79067      0.5          
   2183000  -634.92153      8.9148703      220.75075      0.5          
   2184000  -634.9904      -60.65082       220.55224      0.5          
   2185000  -634.86246     -67.633548      218.52303      0.5          
   2186000  -635.40183     -128.35574      224.45203      0.5          
   2187000  -635.33368      313.87378      219.46326      0.5          
   2188000  -635.20493      59.84178       219.60981      0.5          
   2189000  -635.05216      26.603794      220.69836      0.5          
   2190000  -634.99478     -88.37014       216.69882      0.5          
   2191000  -635.42486     -127.95429      218.62573      0.5          
   2192000  -635.56763     -15.262509      218.62804      0.5          
   2193000  -635.06996      153.05309      218.92954      0.5          
   2194000  -634.84869     -81.587992      216.72983      0.5          
   2195000  -635.13482     -153.35433      220.48976      0.5          
   2196000  -635.35644      116.51017      220.83464      0.5          
   2197000  -635.18849      39.252214      222.09875      0.5          
   2198000  -634.91336      15.76331       215.80427      0.5          
   2199000  -635.16147      100.97072      220.95971      0.5          
   2200000  -635.3299       49.569573      222.25305      0.5          
   2201000  -635.22096      78.618758      223.01914      0.5          
   2202000  -635.17158     -280.39726      219.91879      0.5          
   2203000  -635.10023      190.28305      219.91265      0.5          
   2204000  -635.25489      172.09505      222.30073      0.5          
   2205000  -635.6696      -163.13285      225.29578      0.5          
   2206000  -635.51649      71.893577      221.33006      0.5          
   2207000  -635.21296     -56.143241      221.52534      0.5          
   2208000  -635.50265      24.411179      221.04427      0.5          
   2209000  -635.33485      9.2545021      226.23233      0.5          
   2210000  -635.03014     -122.02482      222.11507      0.5          
   2211000  -635.17751      281.23304      224.79393      0.5          
   2212000  -635.16072     -125.49891      223.8428       0.5          
   2213000  -635.28901      77.15636       222.55078      0.5          
   2214000  -635.3448       111.1678       223.8921       0.5          
   2215000  -635.29867     -234.15162      224.07394      0.5          
   2216000  -635.36096      268.02145      223.17911      0.5          
   2217000  -635.03978     -0.39021245     220.32793      0.5          
   2218000  -635.16906      31.401704      220.41423      0.5          
   2219000  -635.26803      2.6113235      222.54129      0.5          
   2220000  -634.76848     -16.627409      221.54189      0.5          
   2221000  -635.02804      18.552649      222.16564      0.5          
   2222000  -635.06699      88.713268      222.34311      0.5          
   2223000  -635.21082     -13.118255      219.91765      0.5          
   2224000  -635.14753      44.825461      222.3426       0.5          
   2225000  -635.34198      92.688587      218.79743      0.5          
   2226000  -634.99361     -125.82703      219.65077      0.5          
   2227000  -635.21091      22.407092      219.94603      0.5          
   2228000  -635.4888       77.144855      222.18857      0.5          
   2229000  -635.4424      -16.581956      222.05706      0.5          
   2230000  -634.98415      319.36865      217.85141      0.5          
   2231000  -634.98239      106.83569      220.01919      0.5          
   2232000  -635.13751     -99.944196      221.39427      0.5          
   2233000  -635.11571     -209.87168      219.92018      0.5          
   2234000  -635.15839     -146.28174      222.0115       0.5          
   2235000  -634.72119      303.47132      217.34031      0.5          
   2236000  -634.99272      118.58854      219.72823      0.5          
   2237000  -634.92105     -178.37759      221.49996      0.5          
   2238000  -634.9092      -5.340934       223.83857      0.5          
   2239000  -634.42363      10.989948      220.28965      0.5          
   2240000  -634.66527     -45.01191       220.56185      0.5          
   2241000  -634.86499      72.270889      221.88682      0.5          
   2242000  -635.13516      35.115984      222.40447      0.5          
   2243000  -634.98098      88.895073      223.9755       0.5          
   2244000  -634.63198     -64.58161       223.646        0.5          
   2245000  -635.16652     -306.034        221.2938       0.5          
   2246000  -635.14772      307.65471      223.72258      0.5          
   2247000  -634.91816     -109.66211      220.42369      0.5          
   2248000  -634.72067     -281.8333       221.24853      0.5          
   2249000  -634.97516     -85.862874      223.59188      0.5          
   2250000  -635.17756     -37.858479      222.36363      0.5          
   2251000  -635.13842      163.98003      222.23477      0.5          
   2252000  -634.94545      108.82845      221.74627      0.5          
   2253000  -635.1087      -139.01618      219.81088      0.5          
   2254000  -634.85457      25.511862      220.01303      0.5          
   2255000  -634.80558      80.65761       221.48456      0.5          
   2256000  -634.73818     -183.82953      219.84766      0.5          
   2257000  -634.79224     -73.376173      221.37055      0.5          
   2258000  -634.55621      7.9939669      220.28968      0.5          
   2259000  -634.72503      149.83299      219.48505      0.5          
   2260000  -634.66115     -3.3435323      221.10781      0.5          
   2261000  -634.87286      28.115606      224.12938      0.5          
   2262000  -634.8028       136.01046      220.34039      0.5          
   2263000  -634.66718      44.227226      219.33206      0.5          
   2264000  -635.25145     -101.53631      219.90534      0.5          
   2265000  -635.11632      102.34976      222.80695      0.5          
   2266000  -635.40872     -163.71697      222.23623      0.5          
   2267000  -635.16315     -19.311845      221.9633       0.5          
   2268000  -635.07144      210.31212      221.48327      0.5          
   2269000  -635.34114      30.285431      219.73176      0.5          
   2270000  -634.96647      95.849095      223.39031      0.5          
   2271000  -634.85232      54.359822      221.70094      0.5          
   2272000  -634.99258     -135.64997      223.26572      0.5          
   2273000  -635.2699      -50.647364      221.96935      0.5          
   2274000  -635.16807      101.04484      219.84501      0.5          
   2275000  -634.93348     -4.8585567      219.43668      0.5          
   2276000  -635.09586      45.0794        219.13546      0.5          
   2277000  -635.56332     -97.773706      223.74781      0.5          
   2278000  -635.46436     -124.51344      219.52491      0.5          
   2279000  -635.2138       115.02364      222.29456      0.5          
   2280000  -635.13866     -142.98598      220.27589      0.5          
   2281000  -635.43493     -114.35526      221.76589      0.5          
   2282000  -635.1936       0.64784536     220.59767      0.5          
   2283000  -635.30309     -213.10145      218.1039       0.5          
   2284000  -635.03336     -183.71316      220.14754      0.5          
   2285000  -635.28764      218.9424       218.05927      0.5          
   2286000  -635.53423      286.64879      219.2009       0.5          
   2287000  -635.26771      39.59155       219.93428      0.5          
   2288000  -635.23363      8.5003991      219.7384       0.5          
   2289000  -635.26508      17.08436       221.26032      0.5          
   2290000  -635.37059     -59.312413      222.56172      0.5          
   2291000  -635.23919     -408.66409      219.16038      0.5          
   2292000  -635.02261      68.436003      220.14194      0.5          
   2293000  -635.06074      322.35159      219.25369      0.5          
   2294000  -635.18507     -187.44446      221.49615      0.5          
   2295000  -635.13899     -163.0767       221.05664      0.5          
   2296000  -635.03284      32.599538      219.63947      0.5          
   2297000  -634.64382      99.488282      221.2246       0.5          
   2298000  -634.60264     -128.6187       222.21166      0.5          
   2299000  -634.78813     -40.300257      220.35658      0.5          
   2300000  -635.03752      4.7624243      219.33675      0.5          
   2301000  -635.32317      69.044385      220.52997      0.5          
   2302000  -635.04622      73.617794      220.1921       0.5          
   2303000  -634.9973       90.096308      219.52169      0.5          
   2304000  -635.41259     -84.44634       220.94667      0.5          
   2305000  -635.47524     -208.83767      222.26294      0.5          
   2306000  -635.34483      120.926        219.43571      0.5          
   2307000  -635.33746      187.57526      218.59987      0.5          
   2308000  -635.41693     -148.45957      222.70262      0.5          
   2309000  -635.56281      44.727769      219.85962      0.5          
   2310000  -635.46003      4.7165961      220.0537       0.5          
   2311000  -635.43984     -202.77094      218.10597      0.5          
   2312000  -635.38918     -177.26567      217.57075      0.5          
   2313000  -635.49652      95.606309      218.72621      0.5          
   2314000  -635.41131      167.00282      221.01647      0.5          
   2315000  -635.47807     -144.30541      218.12683      0.5          
   2316000  -635.39242     -73.522545      216.95426      0.5          
   2317000  -635.55414     -197.46954      216.56061      0.5          
   2318000  -635.77301      59.622715      218.45218      0.5          
   2319000  -635.60757      55.454845      219.96405      0.5          
   2320000  -635.78766     -207.88465      219.22879      0.5          
   2321000  -635.42174      274.98755      218.50993      0.5          
   2322000  -635.35956     -46.308168      218.94603      0.5          
   2323000  -635.3516      -162.14476      220.86614      0.5          
   2324000  -635.38227      97.793923      218.55638      0.5          
   2325000  -635.40236     -328.0051       218.50169      0.5          
   2326000  -635.2641       168.16368      218.54283      0.5          
   2327000  -635.57887      126.67634      219.86371      0.5          
   2328000  -635.61887     -357.77207      219.96755      0.5          
   2329000  -635.4693      -178.95062      218.20121      0.5          
   2330000  -635.41034      42.023251      220.34327      0.5          
   2331000  -635.77961      153.5818       221.85029      0.5          
   2332000  -635.87178      57.809597      221.43608      0.5          
   2333000  -635.53217     -0.18519384     218.57231      0.5          
   2334000  -635.38446      242.01662      218.94758      0.5          
   2335000  -635.62181      41.562647      221.65178      0.5          
   2336000  -635.28742      82.009496      220.21766      0.5          
   2337000  -635.30479     -201.65872      220.56592      0.5          
   2338000  -635.05855      24.353419      222.77486      0.5          
   2339000  -635.11117     -154.98415      221.96783      0.5          
   2340000  -635.37091      7.5656021      222.01828      0.5          
   2341000  -635.42571      155.30293      220.31066      0.5          
   2342000  -635.25245     -97.951656      219.51759      0.5          
   2343000  -635.18685     -31.706865      221.58859      0.5          
   2344000  -635.49637      67.308118      219.6787       0.5          
   2345000  -635.58802     -154.10942      221.99075      0.5          
   2346000  -635.64982     -83.083756      221.84932      0.5          
   2347000  -635.34496      147.45804      218.33103      0.5          
   2348000  -635.49032     -122.65958      220.04699      0.5          
   2349000  -635.69339     -77.115668      219.38321      0.5          
   2350000  -635.72425      22.803201      220.48107      0.5          
   2351000  -635.73056      112.43703      220.79224      0.5          
   2352000  -635.64291      104.78738      217.7339       0.5          
   2353000  -635.87484     -184.75762      219.07357      0.5          
   2354000  -635.5636       20.501409      216.83895      0.5          
   2355000  -635.51765      62.916912      218.12733      0.5          
   2356000  -635.91042     -115.5705       218.9171       0.5          
   2357000  -635.53828      40.62216       220.23623      0.5          
   2358000  -635.21594     -75.091944      217.82882      0.5          
   2359000  -635.47448     -26.457314      219.10515      0.5          
   2360000  -635.56614      201.62256      218.56008      0.5          
   2361000  -635.40921      136.99269      218.04128      0.5          
   2362000  -635.31089      40.257604      216.87287      0.5          
   2363000  -635.47274      135.79017      216.66259      0.5          
   2364000  -635.71744      18.566934      219.47128      0.5          
   2365000  -635.72215     -295.86225      219.08149      0.5          
   2366000  -635.66386     -76.185216      218.54816      0.5          
   2367000  -635.55243     -141.31717      219.37557      0.5          
   2368000  -636.07145     -2.2069098      223.78209      0.5          
   2369000  -635.59893      247.75534      218.22896      0.5          
   2370000  -635.82581     -175.25496      220.43625      0.5          
   2371000  -635.76533     -197.26704      219.10682      0.5          
   2372000  -635.67898      58.986929      219.80666      0.5          
   2373000  -635.52565      142.46871      218.71164      0.5          
   2374000  -635.62504      69.918332      221.37055      0.5          
   2375000  -635.67919     -91.272935      221.44872      0.5          
   2376000  -635.76815      46.024755      222.01201      0.5          
   2377000  -635.60031      63.875727      219.19982      0.5          
   2378000  -635.23442     -216.07811      219.87504      0.5          
   2379000  -635.67121     -150.25089      222.39895      0.5          
   2380000  -635.72392      24.843958      219.986        0.5          
   2381000  -635.64711      20.239467      221.72246      0.5          
   2382000  -635.53072     -153.05407      222.35511      0.5          
   2383000  -635.44462      240.42678      220.24388      0.5          
   2384000  -635.28138      87.65134       222.30437      0.5          
   2385000  -635.38101     -189.33463      223.2959       0.5          
   2386000  -635.13489     -31.296348      218.52623      0.5          
   2387000  -635.10322      218.66265      223.62868      0.5          
   2388000  -635.25381     -27.108031      220.5216       0.5          
   2389000  -635.12138      59.140202      223.76856      0.5          
   2390000  -634.92531     -140.87499      221.20141      0.5          
   2391000  -634.66759     -111.52495      220.97314      0.5          
   2392000  -634.70403      122.96109      216.06009      0.5          
   2393000  -635.208       -66.056005      219.36347      0.5          
   2394000  -635.49775     -156.75581      219.25174      0.5          
   2395000  -635.40405      183.31917      219.42681      0.5          
   2396000  -635.08886     -23.095628      217.29109      0.5          
   2397000  -635.43917     -84.233117      218.22903      0.5          
   2398000  -635.64126      221.97927      220.30572      0.5          
   2399000  -635.58994      134.4358       218.72299      0.5          
   2400000  -635.21312      119.87041      217.90729      0.5          
   2401000  -635.30143      87.53343       220.5637       0.5          
   2402000  -635.16418      119.66506      217.07064      0.5          
   2403000  -635.17648      61.299406      218.38622      0.5          
   2404000  -635.28816     -101.02556      221.36356      0.5          
   2405000  -635.20978      25.356782      218.65367      0.5          
   2406000  -635.39019     -340.66079      218.48847      0.5          
   2407000  -635.58523     -44.695061      218.11265      0.5          
   2408000  -635.30342     -95.303333      218.71912      0.5          
   2409000  -635.20329     -40.845631      217.43         0.5          
   2410000  -635.16021      182.48451      216.95023      0.5          
   2411000  -635.23303     -65.742785      218.63985      0.5          
   2412000  -635.28643      27.594251      222.42876      0.5          
   2413000  -634.67506      181.51398      217.41624      0.5          
   2414000  -634.67286      134.94436      218.80265      0.5          
   2415000  -635.04368     -190.00066      218.60833      0.5          
   2416000  -635.02553     -112.91587      221.6539       0.5          
   2417000  -635.07584     -12.04072       220.40617      0.5          
   2418000  -634.6284      -14.243045      217.74025      0.5          
   2419000  -634.97932     -7.7884242      220.69759      0.5          
   2420000  -634.90702      40.202408      220.0399       0.5          
   2421000  -634.69509      1.9280806      219.63102      0.5          
   2422000  -634.63577     -286.04654      219.97582      0.5          
   2423000  -634.48506      0.52379508     219.39111      0.5          
   2424000  -634.99135     -8.0437121      220.98585      0.5          
   2425000  -635.1205      -22.077125      220.83557      0.5          
   2426000  -634.51731      183.96458      220.19558      0.5          
   2427000  -634.60252     -178.74224      220.7661       0.5          
   2428000  -634.75257      85.253587      219.19709      0.5          
   2429000  -634.87987      242.32156      220.72364      0.5          
   2430000  -634.94976      44.319423      221.94028      0.5          
   2431000  -634.80341     -191.9023       221.94376      0.5          
   2432000  -634.56728      27.325938      217.52251      0.5          
   2433000  -634.7825      -51.403238      221.47738      0.5          
   2434000  -634.41588      60.323052      219.92289      0.5          
   2435000  -634.3382      -17.667071      219.44447      0.5          
   2436000  -634.06426     -248.68993      220.32218      0.5          
   2437000  -634.12317      79.833527      218.36799      0.5          
   2438000  -634.0262      -147.57352      220.15058      0.5          
   2439000  -634.21856     -142.08818      219.33579      0.5          
   2440000  -634.18439     -146.54891      221.78375      0.5          
   2441000  -633.97803     -132.73732      217.62046      0.5          
   2442000  -633.53933     -294.56885      215.59352      0.5          
   2443000  -634.19807      242.89427      218.11707      0.5          
   2444000  -634.52142      228.33794      220.76531      0.5          
   2445000  -634.04975     -278.64536      219.01052      0.5          
   2446000  -633.67972     -11.089915      219.14213      0.5          
   2447000  -633.93874      160.52418      220.56696      0.5          
   2448000  -634.06911     -132.69765      222.738        0.5          
   2449000  -633.94743     -163.03455      220.99148      0.5          
   2450000  -633.81893     -29.581549      222.02101      0.5          
   2451000  -633.81496      283.30054      223.17966      0.5          
   2452000  -634.02992      13.228073      221.48845      0.5          
   2453000  -633.8994      -32.244907      219.50617      0.5          
   2454000  -633.80152      189.88889      222.19991      0.5          
   2455000  -634.13452      12.170171      222.00576      0.5          
   2456000  -634.33866      156.64708      222.18612      0.5          
   2457000  -634.02518      67.10781       219.19712      0.5          
   2458000  -633.94908     -106.10281      220.75751      0.5          
   2459000  -634.27262      75.133754      219.98127      0.5          
   2460000  -633.99654     -4.6139025      219.77446      0.5          
   2461000  -633.80505      105.86892      220.85194      0.5          
   2462000  -633.60683      97.60827       219.4237       0.5          
   2463000  -633.61897     -124.67114      217.71742      0.5          
   2464000  -633.74481      64.300415      223.31557      0.5          
   2465000  -633.26536     -2.8081338      219.31142      0.5          
   2466000  -633.13834     -48.294362      219.97886      0.5          
   2467000  -633.79279     -83.057572      220.47373      0.5          
   2468000  -633.87916     -208.90485      221.69214      0.5          
   2469000  -633.35757      280.59149      217.30572      0.5          
   2470000  -633.03368      190.10332      214.94393      0.5          
   2471000  -633.2543      -281.3865       219.4834       0.5          
   2472000  -633.64842      70.355565      219.57642      0.5          
   2473000  -633.50473      85.076904      219.95077      0.5          
   2474000  -633.51575     -60.048707      221.94022      0.5          
   2475000  -633.41998      42.702622      221.03317      0.5          
   2476000  -633.41731     -12.048271      219.08814      0.5          
   2477000  -633.56042      183.82984      220.61134      0.5          
   2478000  -633.31079      88.857884      221.67166      0.5          
   2479000  -633.36544     -336.36525      218.38785      0.5          
   2480000  -633.45425     -11.092888      220.74844      0.5          
   2481000  -633.36838     -125.42966      223.73059      0.5          
   2482000  -633.2492      -44.231334      220.44957      0.5          
   2483000  -633.44116     -132.68817      218.25853      0.5          
   2484000  -633.28422     -105.71885      218.88114      0.5          
   2485000  -633.07395      62.207334      221.49006      0.5          
   2486000  -633.13506      325.8395       222.09353      0.5          
   2487000  -633.13638     -50.049431      222.62078      0.5          
   2488000  -633.1969       183.25969      221.94505      0.5          
   2489000  -633.242        44.614795      222.05957      0.5          
   2490000  -633.26196     -212.36916      225.85478      0.5          
   2491000  -633.14007     -184.66744      221.39381      0.5          
   2492000  -633.26507      196.52475      219.71205      0.5          
   2493000  -633.28236      85.090098      221.7124       0.5          
   2494000  -633.18244     -174.88653      220.63156      0.5          
   2495000  -633.32818      148.20452      218.88897      0.5          
   2496000  -633.11787      120.27145      219.36049      0.5          
   2497000  -633.30014     -206.69175      216.3593       0.5          
   2498000  -633.319       -83.678984      221.19714      0.5          
   2499000  -633.10475     -44.229182      218.92125      0.5          
   2500000  -633.15939     -61.528406      219.29414      0.5          
   2501000  -632.95368     -87.460999      220.85909      0.5          
   2502000  -632.97965     -19.277213      220.3675       0.5          
   2503000  -633.12515     -8.7465407      220.10633      0.5          
   2504000  -633.28775      219.36204      222.33225      0.5          
   2505000  -633.28422     -150.29109      217.60308      0.5          
   2506000  -632.93964     -42.565637      216.71404      0.5          
   2507000  -633.30903     -252.51447      222.6155       0.5          
   2508000  -633.21671     -61.577608      220.22601      0.5          
   2509000  -632.78567      265.31232      217.04248      0.5          
   2510000  -632.92114     -140.30796      221.01712      0.5          
   2511000  -632.97504      69.06267       221.18572      0.5          
   2512000  -633.17469     -74.675191      219.59368      0.5          
   2513000  -632.94926     -222.94376      219.78019      0.5          
   2514000  -632.85118      36.664875      218.34652      0.5          
   2515000  -632.77435     -30.551046      221.83923      0.5          
   2516000  -632.87172     -13.474499      219.9973       0.5          
   2517000  -633.02944      233.97932      222.12772      0.5          
   2518000  -632.82767     -92.997438      222.12156      0.5          
   2519000  -632.65683     -53.492894      222.74457      0.5          
   2520000  -632.32198     -167.16183      216.34441      0.5          
   2521000  -632.63776     -30.937014      222.16318      0.5          
   2522000  -632.52065      126.2047       220.58417      0.5          
   2523000  -632.5549       134.74298      222.16564      0.5          
   2524000  -632.29408     -283.77487      218.15102      0.5          
   2525000  -632.17144      120.22387      222.17696      0.5          
   2526000  -632.48301      124.06873      220.48549      0.5          
   2527000  -632.59865     -179.05352      222.22715      0.5          
   2528000  -632.61097     -46.746689      220.5201       0.5          
   2529000  -632.38756      95.483297      220.98982      0.5          
   2530000  -632.44929     -162.13049      220.40353      0.5          
   2531000  -632.81246      41.073757      221.08545      0.5          
   2532000  -632.57235     -75.543651      219.36358      0.5          
   2533000  -632.63087     -69.674304      218.697        0.5          
   2534000  -632.92327      236.14516      221.07447      0.5          
   2535000  -632.99713     -125.06074      219.87226      0.5          
   2536000  -632.70381     -78.447695      221.00144      0.5          
   2537000  -632.49567      90.985992      217.75876      0.5          
   2538000  -632.42467     -91.758327      219.16578      0.5          
   2539000  -632.34987     -310.21541      218.20865      0.5          
   2540000  -632.635        294.14392      218.96145      0.5          
   2541000  -632.78918      81.275484      219.57062      0.5          
   2542000  -632.64161     -198.37685      218.96299      0.5          
   2543000  -632.42999     -9.3619194      219.81912      0.5          
   2544000  -632.26979     -64.20511       218.89809      0.5          
   2545000  -632.36908     -118.08372      218.31754      0.5          
   2546000  -632.92414      152.36422      219.81831      0.5          
   2547000  -632.50354      91.218565      219.89144      0.5          
   2548000  -632.36774     -137.3071       216.22068      0.5          
   2549000  -632.64151     -39.457596      218.62002      0.5          
   2550000  -632.7999       134.63135      218.82095      0.5          
   2551000  -632.6727       75.557529      219.20422      0.5          
   2552000  -632.50848     -253.73429      219.46817      0.5          
   2553000  -632.4742       131.25507      220.1668       0.5          
   2554000  -632.55854      248.192        216.2728       0.5          
   2555000  -632.42024     -46.312636      218.35231      0.5          
   2556000  -632.43139     -146.54924      220.51128      0.5          
   2557000  -632.14319      20.865797      216.80275      0.5          
   2558000  -632.13861      26.901117      218.15661      0.5          
   2559000  -632.44081     -220.31567      220.33747      0.5          
   2560000  -632.46542     -159.91481      219.64918      0.5          
   2561000  -632.30412     -95.765433      217.31484      0.5          
   2562000  -632.68869      46.696157      220.72478      0.5          
   2563000  -632.59157     -39.924852      217.24711      0.5          
   2564000  -632.89459     -61.911477      220.14619      0.5          
   2565000  -632.99254      198.7812       219.66349      0.5          
   2566000  -632.72263     -291.79725      220.96249      0.5          
   2567000  -632.96335     -65.298422      217.9198       0.5          
   2568000  -632.89964      154.13841      218.74616      0.5          
   2569000  -633.07176     -53.970962      217.00442      0.5          
   2570000  -633.3003      -269.73934      220.73862      0.5          
   2571000  -633.27539     -65.138761      220.0815       0.5          
   2572000  -633.62599      305.91839      220.40036      0.5          
   2573000  -633.35676      220.13211      220.41089      0.5          
   2574000  -633.45044     -290.25129      219.063        0.5          
   2575000  -633.31665     -13.984031      220.0882       0.5          
   2576000  -633.64277      143.51904      219.75534      0.5          
   2577000  -633.75046     -142.75429      220.70346      0.5          
   2578000  -633.3722       24.43084       221.0666       0.5          
   2579000  -633.61601     -7.316534       218.16473      0.5          
   2580000  -633.32272      157.85206      218.90439      0.5          
   2581000  -633.69388      13.647876      219.54442      0.5          
   2582000  -633.55683     -57.546938      219.75843      0.5          
   2583000  -633.60725      108.53447      221.31601      0.5          
   2584000  -633.65435     -75.565367      222.58317      0.5          
   2585000  -633.5394       49.179982      219.2067       0.5          
   2586000  -633.41419      10.351417      218.38538      0.5          
   2587000  -633.65781     -21.118023      219.26639      0.5          
   2588000  -633.82194      268.25519      224.56943      0.5          
   2589000  -633.73837      142.86292      219.43793      0.5          
   2590000  -633.68465     -26.220154      221.91668      0.5          
   2591000  -633.89994      96.349253      222.34953      0.5          
   2592000  -633.89282      37.580934      220.94283      0.5          
   2593000  -633.7549       253.10064      224.54966      0.5          
   2594000  -633.72091     -54.587739      216.81723      0.5          
   2595000  -633.81964      110.84805      217.94443      0.5          
   2596000  -633.98642      186.25234      220.75827      0.5          
   2597000  -634.10475      172.46317      217.7221       0.5          
   2598000  -633.9885      -216.92588      218.73682      0.5          
   2599000  -633.72821     -354.08881      217.46905      0.5          
   2600000  -634.03148     -67.260342      219.85537      0.5          
   2601000  -634.17209      80.296086      220.27268      0.5          
   2602000  -634.05018      9.3411303      217.96011      0.5          
   2603000  -633.79222      356.85893      220.27898      0.5          
   2604000  -633.94123     -163.50969      220.64719      0.5          
   2605000  -634.03137     -69.750364      218.08439      0.5          
   2606000  -634.01821     -134.87376      220.16118      0.5          
   2607000  -634.06867     -0.15582525     219.02227      0.5          
   2608000  -633.77354      59.649931      220.55529      0.5          
   2609000  -634.25448     -270.73282      220.11203      0.5          
   2610000  -634.20725      191.82704      218.27236      0.5          
   2611000  -634.06423      41.648108      219.35328      0.5          
   2612000  -633.59762     -52.858835      220.73938      0.5          
   2613000  -633.72884     -16.078776      218.29796      0.5          
   2614000  -634.06167     -118.47364      220.49545      0.5          
   2615000  -633.7081       126.45308      221.58044      0.5          
   2616000  -633.53441     -25.317499      220.97406      0.5          
   2617000  -633.33398     -250.88192      216.23017      0.5          
   2618000  -633.76485      311.71567      218.74061      0.5          
   2619000  -633.83063      225.507        219.21087      0.5          
   2620000  -633.49096     -160.2585       218.95317      0.5          
   2621000  -633.628        220.64906      221.33925      0.5          
   2622000  -633.57537     -6.1852037      219.77076      0.5          
   2623000  -633.40166      114.93202      219.09135      0.5          
   2624000  -633.27027      7.9634668      220.33116      0.5          
   2625000  -633.45115     -129.19782      225.58664      0.5          
   2626000  -633.44505      58.206357      219.43042      0.5          
   2627000  -633.32759     -107.99725      221.88642      0.5          
   2628000  -633.19343     -272.93399      215.96725      0.5          
   2629000  -633.23319      253.33668      221.23327      0.5          
   2630000  -633.21009      70.493473      218.05912      0.5          
   2631000  -633.35394      177.62609      217.2477       0.5          
   2632000  -633.46972     -168.84609      219.01732      0.5          
   2633000  -633.20409      18.098409      218.04902      0.5          
   2634000  -633.15712      67.526748      218.10049      0.5          
   2635000  -633.30393      241.1523       219.22385      0.5          
   2636000  -633.25349      74.210276      219.04874      0.5          
   2637000  -632.99719     -185.68383      216.93193      0.5          
   2638000  -633.00085     -203.12645      217.17492      0.5          
   2639000  -633.20255     -181.63949      219.23382      0.5          
   2640000  -633.12396     -58.362907      216.61678      0.5          
   2641000  -632.88003     -200.6562       217.89471      0.5          
   2642000  -632.88408      151.69958      221.96522      0.5          
   2643000  -633.30248      123.14981      217.93891      0.5          
   2644000  -633.26463      39.083709      219.58638      0.5          
   2645000  -633.18724      37.539746      217.57464      0.5          
   2646000  -632.98597     -344.5676       219.17302      0.5          
   2647000  -632.8141       281.77062      218.97222      0.5          
   2648000  -633.30091      264.44689      220.39296      0.5          
   2649000  -633.32098     -390.68464      220.67648      0.5          
   2650000  -633.11452     -88.802451      218.15161      0.5          
   2651000  -633.25197      312.3905       220.64641      0.5          
   2652000  -632.94524      28.783479      217.85775      0.5          
   2653000  -633.03299     -57.290465      218.57674      0.5          
   2654000  -632.92039     -349.13866      220.13456      0.5          
   2655000  -633.17999      331.88134      220.88001      0.5          
   2656000  -633.37443     -79.071455      222.81209      0.5          
   2657000  -633.26132     -283.72785      220.53755      0.5          
   2658000  -632.8716       388.61295      219.1172       0.5          
   2659000  -633.06163     -214.22875      221.2339       0.5          
   2660000  -632.96017     -67.09289       221.39128      0.5          
   2661000  -633.02153     -65.300574      219.67507      0.5          
   2662000  -632.68544     -133.20586      220.79789      0.5          
   2663000  -633.04545      161.04184      220.50458      0.5          
   2664000  -633.27952     -45.777336      218.54835      0.5          
   2665000  -632.89672      65.714929      218.12103      0.5          
   2666000  -633.01829      148.20356      220.39634      0.5          
   2667000  -633.0977      -22.497924      219.72782      0.5          
   2668000  -633.18583      116.30572      219.26771      0.5          
   2669000  -632.94316      13.856538      218.51255      0.5          
   2670000  -632.97994     -23.207163      221.25297      0.5          
   2671000  -632.94204     -135.08896      216.87687      0.5          
   2672000  -633.10143     -181.74555      219.13007      0.5          
   2673000  -633.06602     -108.02144      218.28626      0.5          
   2674000  -633.22019      86.916023      218.94107      0.5          
   2675000  -633.09577      10.444203      220.06897      0.5          
   2676000  -633.28385      47.954438      221.07806      0.5          
   2677000  -633.10264     -438.99066      220.16035      0.5          
   2678000  -633.03487     -64.726632      221.06426      0.5          
   2679000  -633.15768      71.352088      218.53273      0.5          
   2680000  -632.87999     -36.036733      218.33431      0.5          
   2681000  -632.88569      6.2895904      218.15964      0.5          
   2682000  -633.08545     -89.083148      220.53721      0.5          
   2683000  -633.12281     -7.8209057      218.20081      0.5          
   2684000  -633.18682     -99.267622      218.98022      0.5          
   2685000  -633.20083      74.146676      220.34723      0.5          
   2686000  -633.123        76.06063       219.9218       0.5          
   2687000  -633.13041     -11.140468      219.70805      0.5          
   2688000  -633.13027      10.960032      218.92493      0.5          
   2689000  -633.26178     -172.30057      220.08354      0.5          
   2690000  -633.00691     -39.716144      216.92106      0.5          
   2691000  -633.24776      99.995289      218.05166      0.5          
   2692000  -633.15896      94.139521      215.67893      0.5          
   2693000  -633.11704     -55.83393       220.07933      0.5          
   2694000  -633.23393      334.13533      222.63295      0.5          
   2695000  -633.26552     -144.20492      222.70244      0.5          
   2696000  -633.1664      -24.297895      221.54117      0.5          
   2697000  -633.18474      353.50206      219.82453      0.5          
   2698000  -632.94931     -39.686476      216.79838      0.5          
   2699000  -633.15198     -316.53334      216.93516      0.5          
   2700000  -633.19136      299.38517      219.22557      0.5          
   2701000  -633.17681      172.73347      221.01181      0.5          
   2702000  -632.75735     -256.28104      219.0661       0.5          
   2703000  -632.57665     -97.565127      219.34369      0.5          
   2704000  -632.58988     -14.270641      221.43078      0.5          
   2705000  -632.6396      -31.897023      220.28548      0.5          
   2706000  -632.45061     -153.07417      218.78311      0.5          
   2707000  -632.83103     -425.78426      221.76348      0.5          
   2708000  -632.5559      -126.82341      219.71947      0.5          
   2709000  -632.51685      128.38143      217.70755      0.5          
   2710000  -632.51006     -180.86499      221.8858       0.5          
   2711000  -632.22757      32.873649      217.31281      0.5          
   2712000  -632.45131      179.97854      219.48881      0.5          
   2713000  -632.33175     -186.38442      221.52963      0.5          
   2714000  -632.25527      188.82251      221.00333      0.5          
   2715000  -632.42835     -159.77044      222.78607      0.5          
   2716000  -632.369       -188.35964      221.60671      0.5          
   2717000  -632.03919      186.28845      219.82751      0.5          
   2718000  -632.17368     -40.449217      222.27743      0.5          
   2719000  -632.08625     -56.040197      223.54587      0.5          
   2720000  -632.05115      44.513132      223.02285      0.5          
   2721000  -631.99025      219.7794       222.22917      0.5          
   2722000  -631.94755      201.78416      221.67019      0.5          
   2723000  -631.64592     -153.7746       224.15682      0.5          
   2724000  -631.91593      82.525416      220.00296      0.5          
   2725000  -632.0227      -83.019527      224.2228       0.5          
   2726000  -631.86077     -15.091017      220.75085      0.5          
   2727000  -631.60573     -92.124842      220.54102      0.5          
   2728000  -632.02871     -34.329665      223.12096      0.5          
   2729000  -632.26026      223.08221      221.78328      0.5          
   2730000  -632.32877      36.377366      225.95426      0.5          
   2731000  -631.87963     -288.16382      219.93732      0.5          
   2732000  -631.90399     -36.705879      221.32034      0.5          
   2733000  -632.26191      144.27278      219.23555      0.5          
   2734000  -632.34879     -63.535604      221.88195      0.5          
   2735000  -631.98463      107.8136       221.04771      0.5          
   2736000  -631.73552      157.08912      219.10279      0.5          
   2737000  -631.79774     -8.0452172      219.91177      0.5          
   2738000  -631.78657      139.94899      218.02878      0.5          
   2739000  -632.10128      91.590764      219.37428      0.5          
   2740000  -631.92412     -43.56492       221.42016      0.5          
   2741000  -631.6184      -14.220329      217.79699      0.5          
   2742000  -631.80459     -119.03723      217.82669      0.5          
   2743000  -632.18686     -84.661752      219.21342      0.5          
   2744000  -632.28754     -121.07799      220.20885      0.5          
   2745000  -632.03067      10.178039      220.38671      0.5          
   2746000  -631.69151     -312.60651      216.46239      0.5          
   2747000  -632.02322      1.6029307      218.70085      0.5          
   2748000  -632.25648      102.16493      222.48796      0.5          
   2749000  -631.9777       98.197786      220.08633      0.5          
   2750000  -631.70837     -35.942875      217.56714      0.5          
   2751000  -631.88564     -318.07631      220.74044      0.5          
   2752000  -632.28231      108.53469      222.32108      0.5          
   2753000  -632.46148      149.10519      222.41524      0.5          
   2754000  -632.33024      104.26764      223.36773      0.5          
   2755000  -632.08558      37.345619      220.60595      0.5          
   2756000  -632.04417     -5.3439011      223.68938      0.5          
   2757000  -632.10873      53.751013      221.34302      0.5          
   2758000  -632.14776      238.17667      221.88247      0.5          
   2759000  -632.1014      -60.991826      219.7091       0.5          
   2760000  -632.52652     -209.89035      223.07364      0.5          
   2761000  -632.30413      2.5604343      219.58527      0.5          
   2762000  -632.29204     -133.01408      220.07278      0.5          
   2763000  -631.92985     -21.927492      220.46009      0.5          
   2764000  -632.28127      42.399636      219.51529      0.5          
   2765000  -632.33911      329.11977      220.10661      0.5          
   2766000  -632.13617     -129.84951      219.87738      0.5          
   2767000  -632.08312     -139.79504      216.87109      0.5          
   2768000  -632.19826      139.29682      220.88723      0.5          
   2769000  -632.36689     -207.91956      219.18116      0.5          
   2770000  -632.39952     -322.9665       221.79724      0.5          
   2771000  -631.91449      54.822753      218.45905      0.5          
   2772000  -631.86219     -61.557587      218.78861      0.5          
   2773000  -632.24339     -205.78861      221.49202      0.5          
   2774000  -632.40472     -63.757194      219.42024      0.5          
   2775000  -632.2369       16.674408      220.35902      0.5          
   2776000  -631.99078     -139.87717      220.37218      0.5          
   2777000  -632.27553     -37.707391      220.20276      0.5          
   2778000  -632.07094     -205.8486       218.1655       0.5          
   2779000  -632.06844      25.673867      219.94084      0.5          
   2780000  -631.90214      249.21737      218.35958      0.5          
   2781000  -631.82915      205.51582      213.83355      0.5          
   2782000  -631.90332     -77.907175      218.50757      0.5          
   2783000  -631.91154     -237.44126      221.10572      0.5          
   2784000  -632.01314      55.06321       218.58001      0.5          
   2785000  -631.99957     -137.78244      222.17074      0.5          
   2786000  -631.79991     -36.097174      221.27944      0.5          
   2787000  -631.7728       68.796314      219.03289      0.5          
   2788000  -631.86234     -17.677792      219.01224      0.5          
   2789000  -632.06744      196.16212      219.35791      0.5          
   2790000  -631.8578      -14.286962      221.36523      0.5          
   2791000  -631.66233      108.6034       219.19584      0.5          
   2792000  -631.5095       52.323436      221.18604      0.5          
   2793000  -631.85477      245.248        219.8853       0.5          
   2794000  -632.02937      186.91272      221.11965      0.5          
   2795000  -631.71183     -280.58455      221.36622      0.5          
   2796000  -631.64719      92.25011       218.28429      0.5          
   2797000  -631.75433      289.43667      219.84682      0.5          
   2798000  -631.49427     -204.39923      218.97972      0.5          
   2799000  -631.58952      82.33489       220.93179      0.5          
   2800000  -631.54423      121.63996      220.21995      0.5          
   2801000  -631.53042      155.75193      219.64315      0.5          
   2802000  -631.50279     -47.792604      219.49445      0.5          
   2803000  -631.59614     -323.52028      222.42263      0.5          
   2804000  -631.16486     -120.20478      217.93328      0.5          
   2805000  -631.65684     -26.417984      217.87811      0.5          
   2806000  -631.55989     -230.00526      220.3133       0.5          
   2807000  -631.34677      37.742463      218.77689      0.5          
   2808000  -631.59058     -110.35469      218.44413      0.5          
   2809000  -631.53847     -124.83307      216.20367      0.5          
   2810000  -631.56077      171.27358      216.25799      0.5          
   2811000  -631.65544     -219.74079      218.80725      0.5          
   2812000  -631.67204     -178.08104      218.21135      0.5          
   2813000  -631.56846      88.11989       220.32576      0.5          
   2814000  -631.39639     -268.57464      219.14342      0.5          
   2815000  -631.42237     -105.36766      218.73601      0.5          
   2816000  -631.34283      248.33293      219.31408      0.5          
   2817000  -631.26389      132.12457      220.79116      0.5          
   2818000  -631.39018      25.077515      218.00619      0.5          
   2819000  -631.40973     -152.84805      219.24528      0.5          
   2820000  -631.47408      256.29914      219.47903      0.5          
   2821000  -631.49896      242.33588      221.57355      0.5          
   2822000  -631.28567     -99.102945      220.59171      0.5          
   2823000  -631.52143      121.29693      224.2969       0.5          
   2824000  -631.69887      53.630754      224.36034      0.5          
   2825000  -631.20372     -169.14188      219.6967       0.5          
   2826000  -631.59885      243.40435      223.22619      0.5          
   2827000  -631.6483      -75.676804      222.58304      0.5          
   2828000  -631.53831     -190.05276      220.95474      0.5          
   2829000  -631.6489      -58.932838      218.73091      0.5          
   2830000  -631.53679      28.618772      219.60564      0.5          
   2831000  -631.6924       11.435917      223.89408      0.5          
   2832000  -631.51387     -56.899758      219.9531       0.5          
   2833000  -631.58383      6.233144       222.99256      0.5          
   2834000  -631.23126     -3.3746163      219.61421      0.5          
   2835000  -631.62551     -190.40062      222.44584      0.5          
   2836000  -631.5019       123.48532      220.65278      0.5          
   2837000  -631.49825     -43.345685      220.43438      0.5          
   2838000  -631.09879      233.52602      219.33072      0.5          
   2839000  -631.06785     -211.81945      219.95545      0.5          
   2840000  -631.16406      149.78492      221.94647      0.5          
   2841000  -631.21475      152.10533      217.22994      0.5          
   2842000  -630.97986     -50.646072      221.57317      0.5          
   2843000  -630.82116     -50.575822      219.73837      0.5          
   2844000  -631.09606     -238.93762      219.90403      0.5          
   2845000  -631.19925      350.30296      219.45946      0.5          
   2846000  -631.05427      200.183        220.11655      0.5          
   2847000  -630.66433     -216.90006      218.85336      0.5          
   2848000  -631.25991     -183.72081      218.05659      0.5          
   2849000  -631.39148      44.163135      217.99964      0.5          
   2850000  -631.11796      152.82046      220.20347      0.5          
   2851000  -630.85795      1.2330959      217.53129      0.5          
   2852000  -631.16509      5.5789027      220.95063      0.5          
   2853000  -631.04269      343.75635      220.0973       0.5          
   2854000  -630.82599     -30.236818      223.51727      0.5          
   2855000  -630.47802     -146.31804      219.2318       0.5          
   2856000  -630.74786      289.76315      222.54017      0.5          
   2857000  -630.79607      146.83069      221.54674      0.5          
   2858000  -630.93188     -30.41197       221.27786      0.5          
   2859000  -630.95401     -79.346799      224.07376      0.5          
   2860000  -630.60505     -12.532628      222.21649      0.5          
   2861000  -630.76025      116.52051      221.52571      0.5          
   2862000  -630.74149     -95.115829      218.99901      0.5          
   2863000  -631.0477      -15.398516      221.4309       0.5          
   2864000  -630.96871      93.312165      221.83768      0.5          
   2865000  -630.88785      61.641258      224.0156       0.5          
   2866000  -630.74408     -215.24076      221.86664      0.5          
   2867000  -630.46283     -39.653467      217.76138      0.5          
   2868000  -630.49657      163.50671      217.43775      0.5          
   2869000  -630.38291      27.070199      220.04834      0.5          
   2870000  -630.43528     -9.2967077      218.72938      0.5          
   2871000  -630.41599      52.893298      221.27619      0.5          
   2872000  -630.55427     -156.2559       217.44519      0.5          
   2873000  -630.58998     -65.870096      219.97082      0.5          
   2874000  -630.73126     -195.17073      221.06884      0.5          
   2875000  -630.69319     -143.13205      219.589        0.5          
   2876000  -630.62034     -141.22351      218.17606      0.5          
   2877000  -630.79214      66.478712      218.64356      0.5          
   2878000  -630.95514     -209.16763      215.87435      0.5          
   2879000  -631.08597     -109.89069      218.94776      0.5          
   2880000  -630.66738     -166.97863      219.03721      0.5          
   2881000  -630.77424     -6.131378       218.92431      0.5          
   2882000  -630.92541      60.696766      218.95165      0.5          
   2883000  -630.90299      130.62551      221.13028      0.5          
   2884000  -630.65626      124.59906      217.40872      0.5          
   2885000  -631.19218     -148.83771      221.43491      0.5          
   2886000  -630.82354     -226.63772      222.57495      0.5          
   2887000  -630.68289     -51.834274      218.58582      0.5          
   2888000  -630.82105      362.73949      221.65073      0.5          
   2889000  -630.83446     -32.829464      219.9056       0.5          
   2890000  -630.77034     -204.8295       223.59548      0.5          
   2891000  -630.71823      147.9119       222.48432      0.5          
   2892000  -630.8576      -45.553632      221.9729       0.5          
   2893000  -630.37507      118.91853      220.64227      0.5          
   2894000  -630.68899      52.315011      220.73772      0.5          
   2895000  -630.64937     -46.638701      220.14269      0.5          
   2896000  -630.53353      73.371918      217.53469      0.5          
   2897000  -630.58625     -164.86684      218.49439      0.5          
   2898000  -630.62729     -24.504851      219.93661      0.5          
   2899000  -630.66354     -11.095547      221.24947      0.5          
   2900000  -630.73084      66.531289      218.64072      0.5          
   2901000  -630.68618     -103.67038      219.91561      0.5          
   2902000  -630.74845     -204.41864      219.277        0.5          
   2903000  -630.85804     -197.64313      219.95197      0.5          
   2904000  -630.77493     -45.249385      221.59774      0.5          
   2905000  -630.98198      29.700663      222.39639      0.5          
   2906000  -630.82042     -34.440048      220.1339       0.5          
   2907000  -630.60243      46.960873      218.65143      0.5          
   2908000  -631.18401     -44.618678      221.76882      0.5          
   2909000  -630.84309      222.78416      219.88647      0.5          
   2910000  -630.87611      198.43016      220.31626      0.5          
   2911000  -630.61062     -89.357219      217.38733      0.5          
   2912000  -630.91899     -60.653253      219.15558      0.5          
   2913000  -631.14377     -263.31077      217.07824      0.5          
   2914000  -631.19801     -37.489479      219.11485      0.5          
   2915000  -630.91812      254.88023      220.71334      0.5          
   2916000  -630.7865      -215.54281      218.76085      0.5          
   2917000  -630.81304     -196.03968      217.35215      0.5          
   2918000  -630.87048      29.718494      220.46704      0.5          
   2919000  -630.69857     -96.312435      218.54956      0.5          
   2920000  -630.61905      162.78492      218.85717      0.5          
   2921000  -630.70539      21.587185      220.40653      0.5          
   2922000  -630.76785     -19.197278      221.74811      0.5          
   2923000  -630.76632     -37.598805      219.18559      0.5          
   2924000  -630.75742     -195.93578      219.18998      0.5          
   2925000  -631.0709      -9.5274957      220.91377      0.5          
   2926000  -631.06101      308.91677      217.68639      0.5          
   2927000  -630.9816       14.285811      220.54662      0.5          
   2928000  -630.90505      20.084505      219.27867      0.5          
   2929000  -630.94137     -28.087843      219.88432      0.5          
   2930000  -630.84255     -7.1011726      219.72443      0.5          
   2931000  -630.73646     -57.181184      219.13328      0.5          
   2932000  -630.61055      76.743769      218.80498      0.5          
   2933000  -630.66396     -122.88914      218.25028      0.5          
   2934000  -630.46943     -162.16393      215.58026      0.5          
   2935000  -630.65919     -29.875543      216.1154       0.5          
   2936000  -630.89159      21.706605      220.75329      0.5          
   2937000  -630.75489      42.53138       223.84879      0.5          
   2938000  -630.59101      53.465424      218.55913      0.5          
   2939000  -630.57687      156.97364      220.32006      0.5          
   2940000  -630.77104     -42.504856      222.82573      0.5          
   2941000  -630.77655      45.456538      223.15705      0.5          
   2942000  -630.76762     -62.129972      220.9581       0.5          
   2943000  -630.84508      5.9621026      220.21291      0.5          
   2944000  -631.03827      254.72825      221.36096      0.5          
   2945000  -631.11801      42.40463       220.9163       0.5          
   2946000  -630.92309     -153.99152      221.89662      0.5          
   2947000  -630.98302     -16.895016      221.53838      0.5          
   2948000  -631.04619      7.2441886      223.85292      0.5          
   2949000  -631.31017      295.48304      223.19157      0.5          
   2950000  -631.01085     -283.45799      220.17499      0.5          
   2951000  -630.73881      156.1011       218.38151      0.5          
   2952000  -630.86484      275.51148      221.37885      0.5          
   2953000  -631.08994     -112.06379      218.75457      0.5          
   2954000  -631.19492      124.18477      221.83568      0.5          
   2955000  -630.75409      83.942718      219.08406      0.5          
   2956000  -630.45526      141.16724      217.86338      0.5          
   2957000  -630.52448     -12.894808      219.10316      0.5          
   2958000  -630.75757     -155.26833      219.89073      0.5          
   2959000  -630.68725     -0.0015577718   218.00801      0.5          
   2960000  -630.47028     -262.71468      217.80798      0.5          
   2961000  -630.35163     -19.825394      217.50683      0.5          
   2962000  -630.1268       90.84451       217.93306      0.5          
   2963000  -630.21825     -271.75286      216.36532      0.5          
   2964000  -630.76096     -35.573477      221.76847      0.5          
   2965000  -630.52249     -76.92065       218.48416      0.5          
   2966000  -630.77738      148.16933      220.40176      0.5          
   2967000  -630.54874     -29.296599      219.77816      0.5          
   2968000  -630.34579     -222.88958      217.09011      0.5          
   2969000  -630.8053      -116.03568      221.78505      0.5          
   2970000  -630.6101      -26.048004      223.48658      0.5          
   2971000  -630.59703     -14.493452      221.32879      0.5          
   2972000  -630.37881     -52.073097      219.30231      0.5          
   2973000  -630.27776     -34.07834       220.13895      0.5          
   2974000  -630.55474     -22.824349      221.74222      0.5          
   2975000  -630.45687     -123.74116      219.07419      0.5          
   2976000  -630.52216     -139.32414      224.06943      0.5          
   2977000  -630.1249      -1.2091285      218.99701      0.5          
   2978000  -629.79717     -164.8368       218.97906      0.5          
   2979000  -630.46869     -69.926822      223.77815      0.5          
   2980000  -630.57379     -131.81559      222.17859      0.5          
   2981000  -630.35869     -258.71548      222.42997      0.5          
   2982000  -629.93573      28.806336      218.24844      0.5          
   2983000  -630.33606      193.7739       219.64956      0.5          
   2984000  -630.302        36.048401      218.34953      0.5          
   2985000  -630.5078       327.47266      222.43049      0.5          
   2986000  -629.84719      41.954432      219.21077      0.5          
   2987000  -630.18909     -102.42394      221.44166      0.5          
   2988000  -629.98352     -64.217184      218.63644      0.5          
   2989000  -630.69263     -51.517189      221.78791      0.5          
   2990000  -630.1722       162.27171      220.63491      0.5          
   2991000  -629.99324     -242.80387      215.11821      0.5          
   2992000  -630.17072     -97.215673      218.72972      0.5          
   2993000  -630.26395     -10.992156      218.79727      0.5          
   2994000  -630.16586     -229.60764      220.55575      0.5          
   2995000  -630.43475     -60.426266      219.89967      0.5          
   2996000  -630.03021     -115.1265       217.60323      0.5          
   2997000  -630.00249      197.37479      217.62157      0.5          
   2998000  -630.24978      145.06974      218.8144       0.5          
   2999000  -630.18544     -175.13069      218.4846       0.5          
   3000000  -629.97309      91.939712      219.20078      0.5          
   3001000  -629.97435      22.414984      219.30457      0.5          
   3002000  -630.20996     -137.7282       221.88813      0.5          
   3003000  -630.10244      31.62661       220.60442      0.5          
   3004000  -629.86779      10.488759      222.2964       0.5          
   3005000  -629.818        5.7980408      221.16304      0.5          
   3006000  -629.92161      267.62088      219.87046      0.5          
   3007000  -630.13245     -10.440265      222.74803      0.5          
   3008000  -630.01326      63.656098      224.60094      0.5          
   3009000  -630.01985      318.5262       219.94837      0.5          
   3010000  -629.87278      15.298962      223.10155      0.5          
   3011000  -629.90268     -18.776989      223.44619      0.5          
   3012000  -630.00623      116.78973      222.8337       0.5          
   3013000  -630.112       -217.29427      224.56985      0.5          
   3014000  -629.7345       56.600101      220.82204      0.5          
   3015000  -629.52501      336.38591      222.97734      0.5          
   3016000  -629.71237     -131.2852       222.30257      0.5          
   3017000  -629.96625      49.172999      220.58499      0.5          
   3018000  -629.83931      211.54569      219.70632      0.5          
   3019000  -629.78263      40.438928      220.36268      0.5          
   3020000  -629.7522      -22.618163      221.36098      0.5          
   3021000  -629.83604      30.981781      221.36753      0.5          
   3022000  -630.13621      253.61905      219.76653      0.5          
   3023000  -629.96298     -33.744461      219.77411      0.5          
   3024000  -629.91003      7.1267751      219.96295      0.5          
   3025000  -629.55624     -63.738913      220.61521      0.5          
   3026000  -629.77021     -77.98484       218.76836      0.5          
   3027000  -630.02492     -50.535433      219.35447      0.5          
   3028000  -629.89386      174.09701      219.95663      0.5          
   3029000  -629.61173      60.489457      218.53651      0.5          
   3030000  -629.55332      164.21069      219.83918      0.5          
   3031000  -629.72761     -39.864718      221.29131      0.5          
   3032000  -629.4897      -267.60078      222.45927      0.5          
   3033000  -629.29382      51.055675      221.03574      0.5          
   3034000  -629.31753      113.28665      217.95013      0.5          
   3035000  -629.65309      22.359972      222.78899      0.5          
   3036000  -629.89874      13.932594      220.21538      0.5          
   3037000  -629.49858      114.10831      218.84683      0.5          
   3038000  -629.40061     -8.3798048      222.13274      0.5          
   3039000  -629.48736     -106.72873      221.09228      0.5          
   3040000  -629.56665     -1.6162258      218.58184      0.5          
   3041000  -629.72338     -28.835588      220.25332      0.5          
   3042000  -629.68406     -222.76774      221.094        0.5          
   3043000  -629.78944      86.200006      220.44117      0.5          
   3044000  -629.48164      92.191988      219.91433      0.5          
   3045000  -629.43083     -90.972803      216.85693      0.5          
   3046000  -629.29621      81.010726      219.8872       0.5          
   3047000  -629.564       -163.42982      221.04063      0.5          
   3048000  -629.45466      109.86994      221.0973       0.5          
   3049000  -629.37726     -135.47133      219.65582      0.5          
   3050000  -629.58496     -254.1415       220.08504      0.5          
   3051000  -629.78857      87.174398      218.75441      0.5          
   3052000  -629.57629     -8.5245033      221.06522      0.5          
   3053000  -629.49782     -94.376858      219.96767      0.5          
   3054000  -629.78948     -4.104095       221.58635      0.5          
   3055000  -629.74251      298.30954      223.04346      0.5          
   3056000  -629.41937      229.66826      221.90773      0.5          
   3057000  -629.98961     -1.1159906      221.39567      0.5          
   3058000  -629.87195      11.997461      219.20432      0.5          
   3059000  -629.83562      15.158835      219.01021      0.5          
   3060000  -630.0039       32.172054      219.55985      0.5          
   3061000  -629.7753      -64.929201      218.69742      0.5          
   3062000  -629.57891     -78.495304      220.79168      0.5          
   3063000  -629.47435     -15.93244       217.50782      0.5          
   3064000  -629.72208     -168.74337      220.24763      0.5          
   3065000  -629.74981     -12.367904      220.26356      0.5          
   3066000  -629.42223     -4.398025       219.83783      0.5          
   3067000  -629.46824     -120.76309      221.67249      0.5          
   3068000  -629.70262      117.64495      220.44943      0.5          
   3069000  -629.71267     -32.806083      221.36971      0.5          
   3070000  -629.88206     -85.613219      218.15684      0.5          
   3071000  -629.84679      59.26396       220.55992      0.5          
   3072000  -629.68818     -168.40709      222.28685      0.5          
   3073000  -629.68996     -123.27034      221.13751      0.5          
   3074000  -629.63454     -95.324652      219.50356      0.5          
   3075000  -630.02521     -15.173716      220.00057      0.5          
   3076000  -629.78444     -67.987116      221.73584      0.5          
   3077000  -629.59591     -286.34958      222.14228      0.5          
   3078000  -629.43443      69.80403       224.11505      0.5          
   3079000  -629.45406      223.98449      221.47384      0.5          
   3080000  -629.62356      121.81952      221.44786      0.5          
   3081000  -629.60817     -266.11444      221.9293       0.5          
   3082000  -629.31475     -198.90837      221.63372      0.5          
   3083000  -629.58334     -16.414571      221.92921      0.5          
   3084000  -630.03328      142.06445      221.47445      0.5          
   3085000  -629.81254     -229.0001       219.77646      0.5          
   3086000  -629.37339     -65.424968      220.35747      0.5          
   3087000  -629.2143       302.43509      217.98021      0.5          
   3088000  -629.682       -102.59248      220.8257       0.5          
   3089000  -629.72009     -188.81914      220.01882      0.5          
   3090000  -629.51752      24.678701      217.71046      0.5          
   3091000  -629.36163     -124.00033      218.73033      0.5          
   3092000  -629.40027     -90.980336      220.01103      0.5          
   3093000  -629.31228      164.20726      220.68175      0.5          
   3094000  -629.78035      661.12288      220.85117      0.5          
   3095000  -629.29763     -334.61665      219.76171      0.5          
   3096000  -629.44792     -178.41177      221.1152       0.5          
   3097000  -629.69783      147.31495      219.09295      0.5          
   3098000  -629.60142     -108.14392      218.72468      0.5          
   3099000  -629.7983      -143.18999      218.12157      0.5          
   3100000  -629.56017      119.2697       218.82477      0.5          
   3101000  -629.49993      54.081283      217.26428      0.5          
   3102000  -629.71654     -156.10449      219.82651      0.5          
   3103000  -629.57297     -84.298404      221.4237       0.5          
   3104000  -629.57269      101.95497      218.69838      0.5          
   3105000  -629.5705       19.094813      221.16905      0.5          
   3106000  -629.74211     -112.51309      220.63179      0.5          
   3107000  -629.90895     -117.50025      220.18073      0.5          
   3108000  -629.81564     -92.529794      221.34322      0.5          
   3109000  -629.20044      201.49381      219.69385      0.5          
   3110000  -629.05092      337.88389      218.18033      0.5          
   3111000  -629.38516      13.414862      219.88577      0.5          
   3112000  -629.33897     -189.95614      220.75673      0.5          
   3113000  -629.53725     -133.90186      219.29048      0.5          
   3114000  -629.17246      247.67176      219.50292      0.5          
   3115000  -628.96954      349.11644      217.87765      0.5          
   3116000  -629.22363     -230.41359      218.59024      0.5          
   3117000  -629.47699     -141.36968      221.48541      0.5          
   3118000  -629.1344      -3.4834091      219.56105      0.5          
   3119000  -628.85663     -43.98831       217.91895      0.5          
   3120000  -629.25579      218.78162      220.10064      0.5          
   3121000  -629.50712     -115.77445      219.3989       0.5          
   3122000  -629.58106     -156.20915      218.74037      0.5          
   3123000  -629.32359      93.513371      218.2602       0.5          
   3124000  -629.07924      84.689944      219.56607      0.5          
   3125000  -629.28535     -93.657056      219.40027      0.5          
   3126000  -629.15508     -63.348423      218.57255      0.5          
   3127000  -629.42         9.5075366      220.39588      0.5          
   3128000  -629.35136     -232.63191      218.02098      0.5          
   3129000  -629.11681      112.76686      216.79391      0.5          
   3130000  -629.26216      291.78345      218.96054      0.5          
   3131000  -629.26941     -168.90876      220.37518      0.5          
   3132000  -629.03428     -222.5782       219.62511      0.5          
   3133000  -629.02509     -144.98293      219.0464       0.5          
   3134000  -629.13844      49.91655       220.38766      0.5          
   3135000  -629.14352      67.034992      221.62706      0.5          
   3136000  -629.1569       95.52431       220.98934      0.5          
   3137000  -628.98874     -191.0287       219.52506      0.5          
   3138000  -629.04906      122.58884      218.0013       0.5          
   3139000  -629.2366       95.038936      218.9365       0.5          
   3140000  -629.06982     -20.183816      215.606        0.5          
   3141000  -629.25645     -236.6249       218.64356      0.5          
   3142000  -629.10985     -140.4201       218.63906      0.5          
   3143000  -628.89439      310.17031      216.96901      0.5          
   3144000  -629.14037      31.861947      219.03787      0.5          
   3145000  -629.4583      -209.67669      220.91295      0.5          
   3146000  -629.67178     -91.751094      221.37506      0.5          
   3147000  -629.02346      36.508242      218.83943      0.5          
   3148000  -628.88235      290.09497      221.07017      0.5          
   3149000  -629.08616     -12.467752      218.54572      0.5          
   3150000  -629.23021     -200.00718      221.67563      0.5          
   3151000  -629.25065     -24.082841      218.79186      0.5          
   3152000  -628.7189       34.201749      219.70715      0.5          
   3153000  -628.7986       97.224624      220.95476      0.5          
   3154000  -629.45341     -239.56899      223.22959      0.5          
   3155000  -629.23691     -18.086786      222.9295       0.5          
   3156000  -629.02156      255.48634      218.87989      0.5          
   3157000  -628.65259      59.124818      222.32248      0.5          
   3158000  -629.03835     -108.24182      222.84433      0.5          
   3159000  -629.19504      206.43042      222.55005      0.5          
   3160000  -628.78121      111.37053      222.96052      0.5          
   3161000  -628.81275      99.369948      222.96736      0.5          
   3162000  -628.7558      -146.99303      220.16677      0.5          
   3163000  -629.0946      -113.62748      221.93006      0.5          
   3164000  -628.8718       168.32461      222.15449      0.5          
   3165000  -628.54577     -118.13117      222.88303      0.5          
   3166000  -628.4814       82.504589      219.66782      0.5          
   3167000  -628.74651      249.41676      218.60934      0.5          
   3168000  -628.89052      13.115326      221.7766       0.5          
   3169000  -628.55636     -196.64572      217.81481      0.5          
   3170000  -628.12376      97.61153       220.28813      0.5          
   3171000  -628.1519       70.526507      220.56048      0.5          
   3172000  -628.6243      -42.409514      220.6781       0.5          
   3173000  -628.4853      -38.980391      220.43916      0.5          
   3174000  -628.34137      220.30668      216.79481      0.5          
   3175000  -628.21393     -42.695598      219.87837      0.5          
   3176000  -628.56128     -59.602806      219.08248      0.5          
   3177000  -628.60507     -286.42015      218.69395      0.5          
   3178000  -628.52343     -91.855698      219.20408      0.5          
   3179000  -628.16564      183.52593      219.97346      0.5          
   3180000  -628.11076      44.280217      218.44608      0.5          
   3181000  -628.23698      118.76215      220.88811      0.5          
   3182000  -628.23567     -65.495737      222.6401       0.5          
   3183000  -628.36807      249.87991      220.63438      0.5          
   3184000  -628.55816      132.12817      220.59041      0.5          
   3185000  -628.27848     -214.69387      219.60175      0.5          
   3186000  -628.63091     -27.731592      222.28687      0.5          
   3187000  -628.68678      204.45498      222.15461      0.5          
   3188000  -628.43122      197.04224      221.01018      0.5          
   3189000  -628.42414     -125.21393      220.10686      0.5          
   3190000  -628.42986     -50.254656      222.51568      0.5          
   3191000  -628.37084      223.0173       222.72417      0.5          
   3192000  -628.5395       235.2461       220.02794      0.5          
   3193000  -628.47665     -95.911439      221.08138      0.5          
   3194000  -628.38659     -147.81882      220.1678       0.5          
   3195000  -628.11005     -101.76469      223.54035      0.5          
   3196000  -628.07597     -190.59442      218.93017      0.5          
   3197000  -628.4737       141.55219      222.64499      0.5          
   3198000  -628.47212     -9.5781469      220.99673      0.5          
   3199000  -628.01845      165.48942      218.28688      0.5          
   3200000  -627.81719     -25.626234      217.29847      0.5          
   3201000  -628.21418      76.040637      220.85251      0.5          
   3202000  -628.17965     -14.37566       221.06038      0.5          
   3203000  -627.89226     -279.86681      216.5807       0.5          
   3204000  -628.03158      14.634891      220.38666      0.5          
   3205000  -628.11574     -115.49075      216.85213      0.5          
   3206000  -628.2342       137.45945      218.78903      0.5          
   3207000  -628.14829     -56.149586      218.83682      0.5          
   3208000  -627.81791     -79.302628      217.08495      0.5          
   3209000  -627.68226      208.18278      221.31217      0.5          
   3210000  -627.7119      -140.70959      218.97445      0.5          
   3211000  -627.89026     -136.52803      219.20366      0.5          
   3212000  -627.71152      88.667432      220.38482      0.5          
   3213000  -627.84713      56.951112      220.92263      0.5          
   3214000  -627.59026     -262.19251      220.83415      0.5          
   3215000  -627.93699     -154.60339      221.95729      0.5          
   3216000  -628.0527      -67.062788      218.74216      0.5          
   3217000  -627.91028      84.541238      221.12152      0.5          
   3218000  -627.85799     -60.998637      222.43757      0.5          
   3219000  -627.91676     -114.31557      221.67339      0.5          
   3220000  -627.95159      27.762956      222.6337       0.5          
   3221000  -628.15777      100.74722      223.51925      0.5          
   3222000  -627.95757     -16.15786       221.35719      0.5          
   3223000  -627.88737     -16.390569      220.99002      0.5          
   3224000  -628.04568      117.45523      220.60324      0.5          
   3225000  -627.899       -6.7185263      220.20772      0.5          
   3226000  -627.98723     -336.18361      222.52749      0.5          
   3227000  -627.73419     -46.942865      221.18009      0.5          
   3228000  -627.95629      97.293935      222.04158      0.5          
   3229000  -627.67475     -26.432591      219.28999      0.5          
   3230000  -627.98324     -94.080939      220.04096      0.5          
   3231000  -627.92758      130.22906      218.59623      0.5          
   3232000  -627.84698      157.55556      220.2746       0.5          
   3233000  -627.65322      92.01748       221.33677      0.5          
   3234000  -627.69056     -492.90896      218.67121      0.5          
   3235000  -627.55521     -288.71394      217.19817      0.5          
   3236000  -627.68082      147.37266      219.36343      0.5          
   3237000  -627.30978     -274.94724      214.76676      0.5          
   3238000  -627.35625      284.78039      217.2712       0.5          
   3239000  -627.43973     -70.180263      221.53441      0.5          
   3240000  -627.62772     -31.792055      217.29836      0.5          
   3241000  -627.40464      108.74223      217.5112       0.5          
   3242000  -626.92558     -55.240044      218.64011      0.5          
   3243000  -627.02907     -236.06077      218.97113      0.5          
   3244000  -627.30383      30.981648      218.53191      0.5          
   3245000  -627.53639     -28.707735      218.50733      0.5          
   3246000  -627.22458     -59.499609      220.97732      0.5          
   3247000  -626.90019     -357.25138      218.83971      0.5          
   3248000  -627.23743      164.00333      220.87056      0.5          
   3249000  -627.10921      176.33108      222.05223      0.5          
   3250000  -626.77956      90.625667      219.68423      0.5          
   3251000  -626.68951     -101.37501      219.85032      0.5          
   3252000  -627.37106      39.847279      219.71159      0.5          
   3253000  -627.28309      85.689729      222.3567       0.5          
   3254000  -626.94347     -55.722448      222.01424      0.5          
   3255000  -626.94668      56.314655      220.37828      0.5          
   3256000  -627.05737      238.33606      221.80707      0.5          
   3257000  -627.26577     -56.898283      223.23983      0.5          
   3258000  -627.08223      95.320392      221.20581      0.5          
   3259000  -626.87222      99.16212       217.76286      0.5          
   3260000  -627.08307      139.70645      221.16432      0.5          
   3261000  -627.44215      56.548298      221.60597      0.5          
   3262000  -627.20277      119.73338      221.51097      0.5          
   3263000  -627.35607      88.733816      222.36628      0.5          
   3264000  -627.22721      94.580607      218.2424       0.5          
   3265000  -626.98323     -67.423156      223.4235       0.5          
   3266000  -627.36529     -68.743785      220.55071      0.5          
   3267000  -627.31593      185.98277      218.20474      0.5          
   3268000  -627.16128     -38.782533      219.78818      0.5          
   3269000  -626.92593     -67.674783      216.84206      0.5          
   3270000  -626.93442      82.20258       220.77998      0.5          
   3271000  -627.31246     -105.20271      218.39462      0.5          
   3272000  -627.04116      70.623729      221.10947      0.5          
   3273000  -626.97424      128.27661      217.2476       0.5          
   3274000  -626.90648     -303.49751      214.9865       0.5          
   3275000  -626.97141     -113.35124      220.4998       0.5          
   3276000  -627.19176      107.92769      221.65497      0.5          
   3277000  -627.3062      -95.477334      220.00062      0.5          
   3278000  -627.0433      -40.352399      219.52988      0.5          
   3279000  -627.07942      116.22921      217.22671      0.5          
   3280000  -627.21648     -366.0708       219.27617      0.5          
   3281000  -627.54002      21.172922      218.7991       0.5          
   3282000  -627.32384     -162.90574      217.37169      0.5          
   3283000  -627.05675      90.542232      219.09299      0.5          
   3284000  -626.99992      162.09818      220.09079      0.5          
   3285000  -627.32124     -16.499163      222.0076       0.5          
   3286000  -627.62806     -97.815829      219.20643      0.5          
   3287000  -627.53567     -174.31785      222.71798      0.5          
   3288000  -627.50746     -13.726177      221.64353      0.5          
   3289000  -627.41184      47.698021      218.86427      0.5          
   3290000  -627.54887     -73.298131      224.34772      0.5          
   3291000  -627.79854     -240.19548      223.76067      0.5          
   3292000  -627.54993      21.266817      222.99559      0.5          
   3293000  -627.36145      112.3464       221.23276      0.5          
   3294000  -627.32965     -29.57103       221.29194      0.5          
   3295000  -627.51522     -61.305603      218.73994      0.5          
   3296000  -627.61715     -74.104976      221.79052      0.5          
   3297000  -627.58163     -116.79387      224.78716      0.5          
   3298000  -627.17996      240.48005      223.03231      0.5          
   3299000  -627.00475      367.14107      219.40788      0.5          
   3300000  -627.38409     -65.224999      222.59118      0.5          
   3301000  -627.1864      -35.737556      224.47727      0.5          
   3302000  -627.10389     -119.69939      221.72271      0.5          
   3303000  -627.34539     -72.386092      221.18095      0.5          
   3304000  -627.32064      39.863102      219.97212      0.5          
   3305000  -627.35957      98.043334      219.73478      0.5          
   3306000  -627.4819       37.429111      219.99616      0.5          
   3307000  -627.20544      96.497586      219.70622      0.5          
   3308000  -627.16428     -154.75842      219.1226       0.5          
   3309000  -627.31064     -193.1036       219.62474      0.5          
   3310000  -627.46382     -181.55299      220.12116      0.5          
   3311000  -627.56363     -135.78616      220.04961      0.5          
   3312000  -627.12928      202.68122      218.25764      0.5          
   3313000  -627.252        35.296368      216.18353      0.5          
   3314000  -627.30207     -187.93527      219.42494      0.5          
   3315000  -627.54346      51.517365      218.72603      0.5          
   3316000  -626.98878     -162.3146       219.15657      0.5          
   3317000  -626.9351      -78.226843      216.60759      0.5          
   3318000  -626.71322      138.53326      215.55442      0.5          
   3319000  -627.02538      61.825074      217.70449      0.5          
   3320000  -627.10296     -16.63268       218.74516      0.5          
   3321000  -626.96215     -159.49407      219.45808      0.5          
   3322000  -626.91857     -30.657957      220.6433       0.5          
   3323000  -627.05199      137.1376       220.25169      0.5          
   3324000  -627.34577      86.659462      220.86893      0.5          
   3325000  -627.00423     -29.613879      220.67295      0.5          
   3326000  -626.71723     -210.74883      217.86         0.5          
   3327000  -627.07667     -191.42977      218.78684      0.5          
   3328000  -627.33099     -204.4597       220.46432      0.5          
   3329000  -627.23238     -145.65665      221.91927      0.5          
   3330000  -627.14324      232.5435       222.09103      0.5          
   3331000  -626.81585     -151.02298      219.26251      0.5          
   3332000  -626.9179      -8.8801916      223.33277      0.5          
   3333000  -627.11632      257.75816      221.23536      0.5          
   3334000  -627.20839     -2.0422647      222.92069      0.5          
   3335000  -627.27218     -258.87853      219.995        0.5          
   3336000  -627.25857     -59.286217      221.69001      0.5          
   3337000  -627.3304       121.70182      222.1576       0.5          
   3338000  -627.44912      148.68545      222.26971      0.5          
   3339000  -627.27521      99.111985      219.78473      0.5          
   3340000  -627.30846     -226.40439      220.60293      0.5          
   3341000  -627.2087       92.969698      223.21525      0.5          
   3342000  -626.96754      55.518993      220.84325      0.5          
   3343000  -626.73593      8.7568666      220.26241      0.5          
   3344000  -627.10556     -79.75841       220.68057      0.5          
   3345000  -627.13787     -86.40503       220.13569      0.5          
   3346000  -627.17714     -29.384312      219.49937      0.5          
   3347000  -627.07589     -83.61624       220.9715       0.5          
   3348000  -627.05221      147.93882      218.50581      0.5          
   3349000  -627.21202      94.978181      218.7643       0.5          
   3350000  -627.22182      182.2829       219.67943      0.5          
   3351000  -627.1029       14.803328      220.236        0.5          
   3352000  -627.08698     -116.17623      217.31915      0.5          
   3353000  -627.10232     -156.9935       217.68913      0.5          
   3354000  -627.12635      19.734646      219.76727      0.5          
   3355000  -626.85584      59.543738      217.19518      0.5          
   3356000  -627.32891     -179.05118      217.4846       0.5          
   3357000  -627.55813      5.2488157      219.97627      0.5          
   3358000  -626.9428      -233.03076      217.64673      0.5          
   3359000  -626.86254     -17.427738      218.21755      0.5          
   3360000  -627.05535      20.580333      217.52911      0.5          
   3361000  -627.18911     -489.72967      218.28172      0.5          
   3362000  -627.18067      112.89235      217.50821      0.5          
   3363000  -626.942        112.53158      216.99011      0.5          
   3364000  -627.04709     -12.811562      217.66855      0.5          
   3365000  -626.92992      160.11986      220.13869      0.5          
   3366000  -626.89785     -115.06505      219.0066       0.5          
   3367000  -626.91673      214.39105      220.05139      0.5          
   3368000  -626.85678      84.910918      222.03089      0.5          
   3369000  -627.01886     -253.82084      221.59858      0.5          
   3370000  -626.87558      23.071583      218.74677      0.5          
   3371000  -627.43121      383.2813       222.02554      0.5          
   3372000  -627.126       -177.45934      221.46097      0.5          
   3373000  -626.95577      68.414143      221.37375      0.5          
   3374000  -627.07418      101.76529      219.55868      0.5          
   3375000  -627.10794      110.9143       223.1957       0.5          
   3376000  -627.21961     -76.317201      223.23486      0.5          
   3377000  -627.27699      74.477075      218.60394      0.5          
   3378000  -627.34923      114.37818      221.27893      0.5          
   3379000  -627.33845     -168.72382      221.58092      0.5          
   3380000  -627.33366      86.189101      222.20173      0.5          
   3381000  -627.11661      66.39901       218.48071      0.5          
   3382000  -627.08814      3.1877195      220.52472      0.5          
   3383000  -627.26015     -100.34269      221.28232      0.5          
   3384000  -627.47666      391.53198      222.64749      0.5          
   3385000  -627.42608     -4.9370218      218.96674      0.5          
   3386000  -627.54361     -80.652991      221.46677      0.5          
   3387000  -627.35683     -44.731762      220.06753      0.5          
   3388000  -627.27956      166.08423      220.56276      0.5          
   3389000  -627.48197      74.790519      222.01315      0.5          
   3390000  -627.65187     -185.788        220.51604      0.5          
   3391000  -627.66022     -604.36305      220.14134      0.5          
   3392000  -627.39596     -56.82963       217.94646      0.5          
   3393000  -627.32151      116.87036      217.95012      0.5          
   3394000  -627.57101      86.395199      219.18977      0.5          
   3395000  -627.75578     -46.505618      219.8397       0.5          
   3396000  -627.70378     -205.25723      216.95778      0.5          
   3397000  -627.53389      50.597109      220.30492      0.5          
   3398000  -627.55792     -157.54583      218.30834      0.5          
   3399000  -627.80573      55.142784      218.82024      0.5          
   3400000  -627.9341      -5.1903642      219.10587      0.5          
   3401000  -628.00958     -18.359619      222.28801      0.5          
   3402000  -627.4939      -79.113565      218.26577      0.5          
   3403000  -627.59847     -245.91414      219.2035       0.5          
   3404000  -627.75625     -95.52663       221.76068      0.5          
   3405000  -627.95418      445.80611      220.91762      0.5          
   3406000  -627.96334     -47.426082      219.68116      0.5          
   3407000  -627.89011     -278.88799      220.42427      0.5          
   3408000  -627.81092     -21.550216      219.97677      0.5          
   3409000  -627.82598      103.94998      221.43449      0.5          
   3410000  -628.02492      241.62122      221.33389      0.5          
   3411000  -627.69188      141.34318      221.41638      0.5          
   3412000  -627.46948     -58.727667      222.28962      0.5          
   3413000  -627.8612       45.424761      220.30629      0.5          
   3414000  -627.64755      12.106389      222.98271      0.5          
   3415000  -627.64866     -139.87658      222.58519      0.5          
   3416000  -627.69206     -88.511772      220.61865      0.5          
   3417000  -628.23644      116.24773      220.92826      0.5          
   3418000  -628.08303     -54.967076      220.78971      0.5          
   3419000  -627.81311      137.02935      218.22867      0.5          
   3420000  -627.36138      141.58857      219.88402      0.5          
   3421000  -627.43213      32.774575      220.84129      0.5          
   3422000  -628.07317      90.779407      224.08732      0.5          
   3423000  -627.79224      144.38763      220.91148      0.5          
   3424000  -627.55192     -411.7616       220.57348      0.5          
   3425000  -627.47118     -142.02835      217.83081      0.5          
   3426000  -627.76587      6.5387816      220.50385      0.5          
   3427000  -627.86218     -310.04041      221.28692      0.5          
   3428000  -627.69651     -87.485096      220.41534      0.5          
   3429000  -627.4633       8.5074966      219.4879       0.5          
   3430000  -627.08311     -131.85674      217.7135       0.5          
   3431000  -627.21847     -57.383112      219.70304      0.5          
   3432000  -627.51832      6.9177564      220.96805      0.5          
   3433000  -627.47773     -3.9406271      220.61167      0.5          
   3434000  -627.42348      98.460995      217.82597      0.5          
   3435000  -627.54413     -215.19797      218.11339      0.5          
   3436000  -627.3297       20.355087      215.90082      0.5          
   3437000  -627.44883      132.31144      217.93677      0.5          
   3438000  -627.55196     -56.241324      217.30692      0.5          
   3439000  -627.74835      18.001769      220.31447      0.5          
   3440000  -627.46903     -251.47871      218.19661      0.5          
   3441000  -627.36769     -118.26608      218.35289      0.5          
   3442000  -627.49998     -77.891063      219.63913      0.5          
   3443000  -627.62899      53.891197      216.57725      0.5          
   3444000  -627.35377      188.12837      218.19481      0.5          
   3445000  -627.31365      10.200617      219.61695      0.5          
   3446000  -627.32577      138.29961      220.5135       0.5          
   3447000  -627.60419     -26.850416      220.58396      0.5          
   3448000  -627.448       -165.83156      221.11037      0.5          
   3449000  -627.25682      230.34772      218.87314      0.5          
   3450000  -627.34688      11.858569      221.04847      0.5          
   3451000  -627.785       -126.56623      220.37534      0.5          
   3452000  -627.71161      59.022366      223.81149      0.5          
   3453000  -627.22982      195.86185      219.14862      0.5          
   3454000  -627.40841     -14.045433      220.01879      0.5          
   3455000  -627.749       -159.9781       223.52042      0.5          
   3456000  -628.07314      17.862873      221.78739      0.5          
   3457000  -627.5604       139.70725      221.98183      0.5          
   3458000  -627.25825     -121.80104      220.49412      0.5          
   3459000  -627.57282      12.785748      220.61684      0.5          
   3460000  -627.98028      22.362318      222.39872      0.5          
   3461000  -627.77532      187.46839      222.71255      0.5          
   3462000  -627.42365     -12.628842      221.47027      0.5          
   3463000  -627.71051     -277.7951       221.75117      0.5          
   3464000  -627.71973     -12.2179        222.71291      0.5          
   3465000  -627.6178       319.74167      220.97435      0.5          
   3466000  -627.45906     -62.25937       221.1522       0.5          
   3467000  -627.33257     -34.653042      217.28062      0.5          
   3468000  -627.42641      72.230323      221.78936      0.5          
   3469000  -627.73396     -56.765829      219.0949       0.5          
   3470000  -627.50919     -26.709485      220.56521      0.5          
   3471000  -627.34313      3.9057817      220.06541      0.5          
   3472000  -627.46869     -52.504546      218.99569      0.5          
   3473000  -627.58867     -332.67035      218.0563       0.5          
   3474000  -627.74953     -108.68866      219.46528      0.5          
   3475000  -627.56383     -10.119818      217.45653      0.5          
   3476000  -627.45551     -154.27031      222.70484      0.5          
   3477000  -627.73002     -90.24207       219.02153      0.5          
   3478000  -627.83001     -132.34655      220.69278      0.5          
   3479000  -627.89193     -58.629519      221.18492      0.5          
   3480000  -627.94747      87.321057      220.44916      0.5          
   3481000  -627.81219     -115.55475      218.36444      0.5          
   3482000  -627.96327     -124.17253      218.86354      0.5          
   3483000  -627.93496      53.025543      219.43145      0.5          
   3484000  -627.93908     -161.34858      220.05481      0.5          
   3485000  -627.71673     -175.46339      220.01717      0.5          
   3486000  -628.08589      55.491692      219.87755      0.5          
   3487000  -628.04575      26.015942      220.84103      0.5          
   3488000  -627.85194      22.588945      219.69618      0.5          
   3489000  -627.99303     -0.85052448     222.57905      0.5          
   3490000  -628.3901       7.9082986      220.86346      0.5          
   3491000  -628.20361      120.49734      222.1811       0.5          
   3492000  -628.14768     -311.84146      222.03981      0.5          
   3493000  -627.94635     -40.139328      221.01936      0.5          
   3494000  -628.33191      200.77509      222.81806      0.5          
   3495000  -628.37856     -91.531593      223.47058      0.5          
   3496000  -628.20927      49.959687      217.90215      0.5          
   3497000  -628.09345      289.68696      217.71578      0.5          
   3498000  -628.54344     -117.79947      222.94263      0.5          
   3499000  -628.2311      -266.3539       222.32732      0.5          
   3500000  -628.15931      174.32404      218.07183      0.5          
   3501000  -628.1656       30.821648      219.65283      0.5          
   3502000  -628.31796     -124.95626      219.73843      0.5          
   3503000  -628.02243     -51.457242      217.61992      0.5          
   3504000  -627.53023     -136.74594      219.17556      0.5          
   3505000  -627.59286      145.6298       219.81685      0.5          
   3506000  -628.01558     -15.730733      219.52579      0.5          
   3507000  -627.95694      10.451459      220.73194      0.5          
   3508000  -627.69891      49.967513      216.73665      0.5          
   3509000  -627.7686       113.5186       217.16423      0.5          
   3510000  -627.84034     -96.245811      216.55148      0.5          
   3511000  -628.25303     -187.81985      222.20967      0.5          
   3512000  -627.96897     -121.94819      221.10494      0.5          
   3513000  -627.50797      186.50497      217.26954      0.5          
   3514000  -627.7321      -140.18632      218.2564       0.5          
   3515000  -628.01528      18.28767       222.47492      0.5          
   3516000  -627.87127     -1.4269037      221.38662      0.5          
   3517000  -627.67148      106.74787      219.79143      0.5          
   3518000  -627.35385      94.213188      220.35836      0.5          
   3519000  -627.50687      70.906788      222.70926      0.5          
   3520000  -627.66917      59.882528      222.59769      0.5          
   3521000  -627.90881      7.7803822      221.97891      0.5          
   3522000  -627.78589     -46.216264      221.36706      0.5          
   3523000  -627.72291      159.5884       220.02467      0.5          
   3524000  -627.71086      75.297394      220.00512      0.5          
   3525000  -627.67455     -52.320534      221.06666      0.5          
   3526000  -627.52172     -37.182232      218.53933      0.5          
   3527000  -627.7932       67.705699      221.01309      0.5          
   3528000  -627.68348     -130.13868      218.21069      0.5          
   3529000  -627.85804     -109.75674      220.0705       0.5          
   3530000  -627.6624       230.0997       223.65635      0.5          
   3531000  -627.36004      66.971319      221.72652      0.5          
   3532000  -627.57133     -213.83325      220.21554      0.5          
   3533000  -627.97174     -73.679377      222.5065       0.5          
   3534000  -627.90236      91.809968      218.24827      0.5          
   3535000  -627.53071      238.75737      218.61939      0.5          
   3536000  -627.40018     -176.11185      218.95429      0.5          
   3537000  -627.68622     -312.05942      217.06648      0.5          
   3538000  -627.50565      168.80096      216.5518       0.5          
   3539000  -627.95209     -4.0693883      220.01802      0.5          
   3540000  -627.98686      141.46754      218.98795      0.5          
   3541000  -627.74705      85.25099       220.63335      0.5          
   3542000  -627.91338      100.91215      217.88253      0.5          
   3543000  -627.91619      87.359638      218.23763      0.5          
   3544000  -627.76643     -232.89171      221.7504       0.5          
   3545000  -627.66021     -148.81553      218.04576      0.5          
   3546000  -627.21643      111.67767      219.3977       0.5          
   3547000  -627.40714     -124.0978       218.57533      0.5          
   3548000  -627.41697     -27.968561      219.74218      0.5          
   3549000  -627.40863     -50.160158      218.08343      0.5          
   3550000  -627.54571     -50.6091        217.49031      0.5          
   3551000  -627.68278      43.95135       221.23786      0.5          
   3552000  -627.37466     -113.9281       218.68766      0.5          
   3553000  -627.53609      246.3451       219.59069      0.5          
   3554000  -627.58783     -161.28167      219.7503       0.5          
   3555000  -627.53313     -106.33664      219.58632      0.5          
   3556000  -627.49396      217.51149      220.14209      0.5          
   3557000  -627.2706       163.82914      217.91501      0.5          
   3558000  -627.50688      128.3046       221.34554      0.5          
   3559000  -627.16156     -75.188965      219.33974      0.5          
   3560000  -627.25686     -333.92338      222.02483      0.5          
   3561000  -627.16861      19.96888       217.37803      0.5          
   3562000  -627.4183       43.079639      220.77721      0.5          
   3563000  -627.20837     -98.41786       221.75277      0.5          
   3564000  -627.32472      198.27243      218.40599      0.5          
   3565000  -627.63775     -233.34412      219.72888      0.5          
   3566000  -627.65096      171.99805      221.13584      0.5          
   3567000  -627.48971      116.4556       216.93754      0.5          
   3568000  -627.29547     -207.23712      217.16932      0.5          
   3569000  -627.49075     -36.471086      221.47416      0.5          
   3570000  -627.62779      99.624187      219.92023      0.5          
   3571000  -627.39058     -31.077035      219.87668      0.5          
   3572000  -627.37658      254.63077      218.6897       0.5          
   3573000  -627.21681     -37.47501       220.44857      0.5          
   3574000  -627.33855      69.555107      217.33741      0.5          
   3575000  -627.56244     -123.64188      220.11798      0.5          
   3576000  -627.85602     -243.93338      221.66851      0.5          
   3577000  -627.78677      235.78245      217.91875      0.5          
   3578000  -627.32219      268.97337      218.82788      0.5          
   3579000  -627.48347     -152.59506      222.56845      0.5          
   3580000  -627.71555     -143.5985       217.84109      0.5          
   3581000  -627.47537      109.59973      218.8235       0.5          
   3582000  -627.62951     -110.63389      219.81201      0.5          
   3583000  -627.33311     -65.365152      220.80695      0.5          
   3584000  -627.56083     -125.25032      219.81749      0.5          
   3585000  -627.65346     -271.5195       220.07589      0.5          
   3586000  -627.44692      88.883463      221.75701      0.5          
   3587000  -627.26957      227.97668      219.14139      0.5          
   3588000  -627.48197     -37.838439      222.77434      0.5          
   3589000  -627.46698     -293.14481      219.89146      0.5          
   3590000  -627.7284      -27.696578      221.39725      0.5          
   3591000  -627.69787     -67.882563      221.24921      0.5          
   3592000  -627.63627     -264.327        217.62481      0.5          
   3593000  -627.50786      129.65608      218.48944      0.5          
   3594000  -627.51462     -84.355637      220.77145      0.5          
   3595000  -627.69086      67.077692      218.97483      0.5          
   3596000  -627.66009      167.89144      217.0268       0.5          
   3597000  -627.37413     -207.16871      218.31002      0.5          
   3598000  -627.68453     -137.14054      220.04652      0.5          
   3599000  -627.84846      99.40439       220.40029      0.5          
   3600000  -627.63022     -35.434829      217.07161      0.5          
   3601000  -627.64344      34.442209      220.11225      0.5          
   3602000  -627.53258      38.173356      220.14763      0.5          
   3603000  -627.37358     -279.3772       221.01652      0.5          
   3604000  -627.68298      39.956477      220.63642      0.5          
   3605000  -627.73259     -145.42867      217.89541      0.5          
   3606000  -627.65601     -142.25582      218.85526      0.5          
   3607000  -627.83612      226.85731      218.14879      0.5          
   3608000  -627.62416      4.0886403      219.64485      0.5          
   3609000  -627.5202      -24.533398      219.90914      0.5          
   3610000  -627.62157      108.91739      218.87917      0.5          
   3611000  -627.74437      173.93158      219.03571      0.5          
   3612000  -627.83999     -51.244688      221.29999      0.5          
   3613000  -627.39838     -58.649914      221.58613      0.5          
   3614000  -627.67058     -90.749701      218.64548      0.5          
   3615000  -627.98301     -18.383411      217.06905      0.5          
   3616000  -627.61496     -95.38045       218.77779      0.5          
   3617000  -627.74052     -15.83353       220.72711      0.5          
   3618000  -627.70214      191.55279      217.00837      0.5          
   3619000  -627.65506      103.82298      219.34205      0.5          
   3620000  -627.69697      96.727182      218.4991       0.5          
   3621000  -627.78784     -188.083        219.94665      0.5          
   3622000  -627.37511     -199.06524      218.44435      0.5          
   3623000  -627.61264      161.01301      220.40899      0.5          
   3624000  -627.61921      18.483612      221.1819       0.5          
   3625000  -627.86602     -100.97737      221.59271      0.5          
   3626000  -627.63399      68.847103      221.32561      0.5          
   3627000  -627.61584     -21.246493      222.51199      0.5          
   3628000  -627.79483      233.17318      220.77827      0.5          
   3629000  -627.25804      104.13094      217.70578      0.5          
   3630000  -627.48883     -45.914091      219.7551       0.5          
   3631000  -627.61452     -225.84595      219.63317      0.5          
   3632000  -627.541        251.44219      219.7889       0.5          
   3633000  -627.42737     -7.4778499      217.83143      0.5          
   3634000  -627.31646     -169.373        221.14518      0.5          
   3635000  -627.62102      337.46589      220.90082      0.5          
   3636000  -627.37488      526.56355      221.49109      0.5          
   3637000  -626.90664     -143.81159      219.51655      0.5          
   3638000  -626.94925     -101.88091      214.82242      0.5          
   3639000  -627.22748      187.22936      218.52605      0.5          
   3640000  -627.47129     -55.237456      217.40383      0.5          
   3641000  -627.13056     -55.243084      218.86447      0.5          
   3642000  -626.72673      57.081318      217.80077      0.5          
   3643000  -626.98364     -157.89633      217.77518      0.5          
   3644000  -627.1295      -100.38626      220.67714      0.5          
   3645000  -626.76092     -313.23437      218.6712       0.5          
   3646000  -627.08133      226.28876      219.82459      0.5          
   3647000  -626.97639      41.124021      220.3254       0.5          
   3648000  -626.77885      192.21889      219.79627      0.5          
   3649000  -626.54646      109.55674      218.88093      0.5          
   3650000  -626.75882     -146.16072      220.66542      0.5          
   3651000  -626.70088     -12.152102      219.63761      0.5          
   3652000  -626.66328      85.534393      220.89843      0.5          
   3653000  -627.11419      189.95717      218.03203      0.5          
   3654000  -626.95171      104.46523      221.01769      0.5          
   3655000  -627.00883     -34.985993      221.16194      0.5          
   3656000  -626.82181     -163.01822      221.68968      0.5          
   3657000  -626.4435       181.57015      221.14309      0.5          
   3658000  -627.20421      41.013034      221.3789       0.5          
   3659000  -627.18036     -221.92391      219.65984      0.5          
   3660000  -627.01701      272.17689      219.17949      0.5          
   3661000  -626.85473     -82.850047      218.5875       0.5          
   3662000  -626.89217     -290.02752      218.83574      0.5          
   3663000  -627.12264      103.08569      220.82195      0.5          
   3664000  -626.8806       290.19827      224.26521      0.5          
   3665000  -626.88351     -304.2674       221.08583      0.5          
   3666000  -627.1057      -193.72345      220.15076      0.5          
   3667000  -627.13673      145.48609      219.74423      0.5          
   3668000  -626.95442     -161.18185      221.80603      0.5          
   3669000  -626.73628      10.722278      220.8045       0.5          
   3670000  -626.90437      42.165118      218.26623      0.5          
   3671000  -626.6542       34.753968      217.80094      0.5          
   3672000  -626.70598      31.225879      218.70718      0.5          
   3673000  -626.75809      24.024045      219.74014      0.5          
   3674000  -626.67106      138.34439      220.90252      0.5          
   3675000  -626.65391      17.521009      219.79558      0.5          
   3676000  -627.07726     -38.522217      220.9029       0.5          
   3677000  -626.9514       104.29114      222.22781      0.5          
   3678000  -626.71696      68.316847      219.78833      0.5          
   3679000  -626.80353      44.106778      219.82778      0.5          
   3680000  -626.8221       147.74008      219.60433      0.5          
   3681000  -626.92292     -190.35342      219.51205      0.5          
   3682000  -627.06157     -48.134465      223.35014      0.5          
   3683000  -626.74609     -11.709579      218.15593      0.5          
   3684000  -626.98515     -45.037747      220.07591      0.5          
   3685000  -626.84685      28.675469      221.24063      0.5          
   3686000  -626.69525      103.36154      219.44096      0.5          
   3687000  -626.45084      43.557701      218.92218      0.5          
   3688000  -626.8146      -60.838721      218.90454      0.5          
   3689000  -626.79368      56.690881      219.62011      0.5          
   3690000  -626.84698      106.36749      219.08493      0.5          
   3691000  -627.17408     -146.84518      220.24331      0.5          
   3692000  -626.85734      56.986188      220.96978      0.5          
   3693000  -626.78701     -23.348505      217.71207      0.5          
   3694000  -626.9673       94.517215      219.23892      0.5          
   3695000  -627.25201      46.366263      221.51927      0.5          
   3696000  -627.25907     -107.36831      219.48255      0.5          
   3697000  -626.93591     -88.652032      220.46414      0.5          
   3698000  -626.74597      206.11832      218.44518      0.5          
   3699000  -626.99947      208.32355      221.13588      0.5          
   3700000  -627.27683     -90.638397      221.32585      0.5          
   3701000  -627.09177     -25.172064      221.27739      0.5          
   3702000  -627.20623      70.555552      219.71396      0.5          
   3703000  -626.98633     -37.609408      218.73918      0.5          
   3704000  -627.21323      268.93045      223.79674      0.5          
   3705000  -627.44431      71.367245      219.21086      0.5          
   3706000  -626.93384     -78.035972      218.44333      0.5          
   3707000  -626.80046      122.54815      220.64341      0.5          
   3708000  -626.60194      28.763467      220.9168       0.5          
   3709000  -626.92203     -77.208127      222.42449      0.5          
   3710000  -626.74963     -64.864674      220.60253      0.5          
   3711000  -626.62769     -73.001472      219.32912      0.5          
   3712000  -626.89164      231.80236      219.29618      0.5          
   3713000  -626.60965      278.06142      217.70039      0.5          
   3714000  -626.80473     -259.81214      220.85441      0.5          
   3715000  -626.8524      -22.488592      218.27686      0.5          
   3716000  -626.82338      93.709609      220.88376      0.5          
   3717000  -626.8479       121.53513      220.45595      0.5          
   3718000  -626.88104     -115.10663      221.13645      0.5          
   3719000  -626.88813     -122.92394      221.35056      0.5          
   3720000  -626.85911     -181.55824      219.56867      0.5          
   3721000  -626.92022     -6.439163       218.84922      0.5          
   3722000  -626.6415       335.61002      219.84817      0.5          
   3723000  -626.75892     -75.707721      218.34799      0.5          
   3724000  -626.97651     -61.797144      220.11007      0.5          
   3725000  -627.08505      195.9657       221.17632      0.5          
   3726000  -626.48375     -384.0458       218.52827      0.5          
   3727000  -626.4719      -9.8499762      216.46351      0.5          
   3728000  -626.58413      212.65631      217.45115      0.5          
   3729000  -627.00885      13.247094      217.60806      0.5          
   3730000  -626.68917     -51.722922      220.87039      0.5          
   3731000  -626.79596      189.62586      217.33947      0.5          
   3732000  -626.61818     -18.551368      215.26545      0.5          
   3733000  -626.88684     -46.688053      218.84928      0.5          
   3734000  -627.13351      294.27881      218.16224      0.5          
   3735000  -627.19063     -112.74911      217.98561      0.5          
   3736000  -626.85129     -155.10788      218.49908      0.5          
   3737000  -627.09729      330.04319      221.50367      0.5          
   3738000  -626.95595      80.188496      219.20746      0.5          
   3739000  -627.31362     -249.7982       221.09239      0.5          
   3740000  -626.83594      41.89023       218.52137      0.5          
   3741000  -626.90003     -43.262253      218.36247      0.5          
   3742000  -627.35624     -88.48112       218.31746      0.5          
   3743000  -627.27963      213.57248      218.12132      0.5          
   3744000  -627.05969     -61.183707      220.00685      0.5          
   3745000  -626.89018      217.84135      218.61573      0.5          
   3746000  -626.83409      120.8961       218.66582      0.5          
   3747000  -626.91823      31.722818      220.81124      0.5          
   3748000  -626.7156       62.543372      222.75707      0.5          
   3749000  -626.50279     -75.712635      218.70261      0.5          
   3750000  -626.62814     -215.89271      218.3719       0.5          
   3751000  -626.50269      29.814679      219.36227      0.5          
   3752000  -626.63302      320.84908      219.24587      0.5          
   3753000  -626.58971      110.33035      220.10834      0.5          
   3754000  -626.56057     -134.74579      221.65643      0.5          
   3755000  -626.32414      115.99913      221.53187      0.5          
   3756000  -626.57175     -170.00634      218.81231      0.5          
   3757000  -626.68863      12.62191       220.74299      0.5          
   3758000  -626.73859      83.108601      220.26662      0.5          
   3759000  -626.57828     -22.557022      218.50935      0.5          
   3760000  -626.47993      92.6996        219.97638      0.5          
   3761000  -626.51936      92.012113      220.96697      0.5          
   3762000  -626.2984      -1.3149468      216.71686      0.5          
   3763000  -626.41795      94.126986      217.20062      0.5          
   3764000  -626.70334     -133.2785       218.79377      0.5          
   3765000  -626.64646      48.735642      217.81705      0.5          
   3766000  -626.39878      93.758765      216.5536       0.5          
   3767000  -626.78004     -201.46811      219.22047      0.5          
   3768000  -626.70289      10.978378      214.75188      0.5          
   3769000  -626.75249      146.36063      217.26157      0.5          
   3770000  -626.8756       14.146375      220.31772      0.5          
   3771000  -626.77138     -39.46263       218.33478      0.5          
   3772000  -626.51075     -25.929313      217.03259      0.5          
   3773000  -626.6764      -41.934917      221.77089      0.5          
   3774000  -626.40632      49.568685      221.45388      0.5          
   3775000  -626.47331     -28.685049      219.01593      0.5          
   3776000  -626.22427     -106.11336      216.98407      0.5          
   3777000  -626.32145      19.857513      217.92235      0.5          
   3778000  -626.37816     -48.311112      219.69973      0.5          
   3779000  -626.10807      63.537663      215.95374      0.5          
   3780000  -625.99359     -52.029193      219.65131      0.5          
   3781000  -626.04543     -222.16723      218.20407      0.5          
   3782000  -626.0769       152.93211      222.20981      0.5          
   3783000  -626.09963      97.343355      220.31486      0.5          
   3784000  -626.10301     -43.533065      223.2776       0.5          
   3785000  -626.35985      127.3015       216.62145      0.5          
   3786000  -626.08209      81.176185      220.6359       0.5          
   3787000  -626.05655      23.748275      221.7268       0.5          
   3788000  -626.14457      48.178606      220.28683      0.5          
   3789000  -626.28338     -200.80018      219.98298      0.5          
   3790000  -626.29423      165.79358      220.45039      0.5          
   3791000  -626.12926      15.600869      219.61477      0.5          
   3792000  -626.05497     -188.87025      219.41431      0.5          
   3793000  -626.39963      73.841023      223.62679      0.5          
   3794000  -626.48104     -138.82297      221.18319      0.5          
   3795000  -626.3291       58.042656      220.74086      0.5          
   3796000  -626.31164     -105.09253      220.73303      0.5          
   3797000  -626.19808      46.383399      217.77497      0.5          
   3798000  -626.27438     -128.37889      218.82767      0.5          
   3799000  -626.49069      60.06227       219.11415      0.5          
   3800000  -626.35262      31.423282      218.64861      0.5          
   3801000  -626.25639      169.70651      217.81345      0.5          
   3802000  -626.38062     -70.867321      219.6238       0.5          
   3803000  -626.19562     -37.077121      219.93946      0.5          
   3804000  -626.27199      243.47936      222.99088      0.5          
   3805000  -626.28361     -79.274193      221.41205      0.5          
   3806000  -626.16312     -135.91044      219.18656      0.5          
   3807000  -625.98856      141.47718      219.65548      0.5          
   3808000  -626.13151      209.83757      219.83699      0.5          
   3809000  -625.99226     -75.050884      221.71706      0.5          
   3810000  -625.84623     -120.4705       221.78415      0.5          
   3811000  -625.73482     -143.16946      217.90211      0.5          
   3812000  -625.78804     -103.05703      219.50295      0.5          
   3813000  -625.86416     -73.710559      221.4454       0.5          
   3814000  -625.89659      92.355524      220.80274      0.5          
   3815000  -625.95076     -142.20886      219.71795      0.5          
   3816000  -625.9508      -155.07301      221.37569      0.5          
   3817000  -625.95724     -146.0609       220.4933       0.5          
   3818000  -625.86952     -11.528217      218.61024      0.5          
   3819000  -626.21485      79.338737      220.27521      0.5          
   3820000  -625.95075      181.12736      215.59997      0.5          
   3821000  -625.87456      25.367684      219.2918       0.5          
   3822000  -625.63142      172.0338       217.84581      0.5          
   3823000  -625.78623     -74.35646       220.75861      0.5          
   3824000  -625.88527     -350.00369      221.57612      0.5          
   3825000  -625.84967     -34.64568       222.25371      0.5          
   3826000  -625.51452      232.34659      216.67906      0.5          
   3827000  -625.28274     -118.66951      218.87323      0.5          
   3828000  -625.4954      -107.02223      217.94431      0.5          
   3829000  -625.58026     -32.745788      218.4376       0.5          
   3830000  -626.09333      65.496561      219.85263      0.5          
   3831000  -625.35647     -180.14886      218.09996      0.5          
   3832000  -625.417       -115.80527      219.92001      0.5          
   3833000  -625.60911      230.33637      219.37663      0.5          
   3834000  -625.54285      135.43716      220.28614      0.5          
   3835000  -625.36409     -71.420713      220.96895      0.5          
   3836000  -625.51858      135.18403      221.14682      0.5          
   3837000  -625.26699     -144.43051      221.29905      0.5          
   3838000  -625.46493     -128.60847      222.40682      0.5          
   3839000  -625.67047     -22.896315      223.15461      0.5          
   3840000  -625.71544      2.3462497      221.96318      0.5          
   3841000  -625.37184     -146.37159      220.26994      0.5          
   3842000  -625.26415     -80.80428       221.76036      0.5          
   3843000  -625.44293      213.37571      222.27928      0.5          
   3844000  -625.55777      135.05981      222.22377      0.5          
   3845000  -625.28218      171.77324      221.88897      0.5          
   3846000  -625.13563     -157.88664      220.602        0.5          
   3847000  -625.262       -54.21137       224.04914      0.5          
   3848000  -624.96861     -55.172321      220.73765      0.5          
   3849000  -625.01347     -88.734047      222.72198      0.5          
   3850000  -625.00933      25.557671      223.67248      0.5          
   3851000  -624.90241      68.145992      220.57568      0.5          
   3852000  -625.30371      91.816127      224.5622       0.5          
   3853000  -624.88932     -111.96341      220.8925       0.5          
   3854000  -624.72554      207.85401      219.82588      0.5          
   3855000  -625.03312     -35.119779      221.1488       0.5          
   3856000  -625.19115     -174.99766      222.78918      0.5          
   3857000  -625.26498     -71.577172      218.69384      0.5          
   3858000  -624.78052      31.712512      220.90324      0.5          
   3859000  -624.97749     -146.13225      216.73379      0.5          
   3860000  -625.06828     -143.05377      217.26712      0.5          
   3861000  -625.25685     -183.75581      218.9833       0.5          
   3862000  -625.13168      215.99461      218.44236      0.5          
   3863000  -624.93354      74.803577      217.73709      0.5          
   3864000  -625.16023     -94.553989      217.29138      0.5          
   3865000  -625.42968     -49.883168      216.16004      0.5          
   3866000  -625.3556      -142.83822      216.89982      0.5          
   3867000  -625.17666     -265.6046       219.03713      0.5          
   3868000  -624.69368     -230.07039      215.29694      0.5          
   3869000  -624.92621      8.0698519      218.37445      0.5          
   3870000  -624.94759     -105.69514      221.32458      0.5          
   3871000  -624.61274     -220.44898      219.30283      0.5          
   3872000  -624.24902     -122.05981      217.44236      0.5          
   3873000  -624.55845      240.52662      219.96745      0.5          
   3874000  -624.49712     -28.752922      218.97177      0.5          
   3875000  -624.8081       38.918181      225.24907      0.5          
   3876000  -624.51472      67.189325      223.2986       0.5          
   3877000  -624.65468     -54.893705      226.34118      0.5          
   3878000  -624.40601      16.191316      221.36658      0.5          
   3879000  -624.61245     -129.79422      222.47844      0.5          
   3880000  -624.53619     -3.4628479      223.47886      0.5          
   3881000  -623.93051      236.98721      220.07064      0.5          
   3882000  -624.23065     -328.36686      221.98336      0.5          
   3883000  -624.41936     -136.67894      220.65243      0.5          
   3884000  -624.5113      -3.6087946      221.92537      0.5          
   3885000  -624.30234     -119.0549       220.61359      0.5          
   3886000  -624.09847      146.24938      220.44932      0.5          
   3887000  -624.07051     -221.73786      220.67533      0.5          
   3888000  -624.271       -10.228151      219.39934      0.5          
   3889000  -624.38047      330.99744      222.07337      0.5          
   3890000  -624.46244     -150.64474      222.52074      0.5          
   3891000  -624.11273     -63.591051      217.85979      0.5          
   3892000  -624.32448      21.737879      221.25831      0.5          
   3893000  -624.40543     -191.81805      220.21211      0.5          
   3894000  -624.3857       63.85086       221.0066       0.5          
   3895000  -624.20715      19.256231      217.46258      0.5          
   3896000  -624.15829      153.10523      218.29016      0.5          
   3897000  -624.08089      43.112353      218.01187      0.5          
   3898000  -623.89845     -200.04812      219.13342      0.5          
   3899000  -623.62452     -38.29399       217.99563      0.5          
   3900000  -623.80629     -81.797312      216.6741       0.5          
   3901000  -623.89509      131.09961      216.44414      0.5          
   3902000  -623.86975     -33.487017      218.43975      0.5          
   3903000  -623.7399       14.764482      217.91625      0.5          
   3904000  -623.6865       149.31572      216.61277      0.5          
   3905000  -624.0415      -73.95766       219.39911      0.5          
   3906000  -623.77863      50.411173      217.25941      0.5          
   3907000  -623.87241     -9.1880095      219.55673      0.5          
   3908000  -623.76905      15.356726      219.60049      0.5          
   3909000  -623.71799      88.011239      218.80573      0.5          
   3910000  -623.98269      127.99897      220.64693      0.5          
   3911000  -623.95617      208.43485      222.72196      0.5          
   3912000  -623.94435      88.160287      220.69576      0.5          
   3913000  -623.63106     -316.12599      220.73019      0.5          
   3914000  -623.77479     -61.658404      221.61034      0.5          
   3915000  -623.97173      182.45726      222.24795      0.5          
   3916000  -623.91663      173.80177      220.71501      0.5          
   3917000  -623.67569     -156.99859      222.14128      0.5          
   3918000  -623.64738      96.7795        219.52603      0.5          
   3919000  -623.88987      80.305331      219.06283      0.5          
   3920000  -623.85442     -18.731392      219.36437      0.5          
   3921000  -623.66957     -19.939471      218.51271      0.5          
   3922000  -623.69861      104.95689      217.28923      0.5          
   3923000  -623.7583       52.36294       222.30344      0.5          
   3924000  -623.7833      -71.070596      220.40692      0.5          
   3925000  -623.50412     -44.198587      219.50753      0.5          
   3926000  -623.30103      41.938201      216.95808      0.5          
   3927000  -623.63085      3.4378811      219.06512      0.5          
   3928000  -623.99117     -302.95844      217.33478      0.5          
   3929000  -623.09471     -57.747736      218.72686      0.5          
   3930000  -622.75626      144.78237      214.62973      0.5          
   3931000  -623.13812     -148.19987      218.7936       0.5          
   3932000  -623.49534     -34.976011      219.55532      0.5          
   3933000  -623.35361      171.12855      217.82703      0.5          
   3934000  -623.02258     -92.491063      215.66062      0.5          
   3935000  -623.26368     -279.64546      220.9909       0.5          
   3936000  -623.66748     -107.11484      217.18471      0.5          
   3937000  -623.90448      189.83696      219.68134      0.5          
   3938000  -623.58484     -43.218204      218.2922       0.5          
   3939000  -622.99122     -209.92043      216.64965      0.5          
   3940000  -623.19147      338.12472      217.77567      0.5          
   3941000  -623.6567       108.41265      218.63911      0.5          
   3942000  -623.60164     -93.941805      219.34318      0.5          
   3943000  -623.39171     -14.811429      220.3347       0.5          
   3944000  -622.84812      30.936493      217.41078      0.5          
   3945000  -623.38003      156.9936       218.66429      0.5          
   3946000  -623.29062      76.896989      219.95725      0.5          
   3947000  -623.39539      29.145854      218.3697       0.5          
   3948000  -623.17949     -18.17237       218.94413      0.5          
   3949000  -623.53024     -124.92514      220.27358      0.5          
   3950000  -623.57306      285.25214      218.94812      0.5          
   3951000  -623.4356       263.32637      220.36554      0.5          
   3952000  -623.07583      66.654163      217.90326      0.5          
   3953000  -623.0893       32.445628      220.09301      0.5          
   3954000  -622.99145     -74.453576      218.48483      0.5          
   3955000  -623.46114      150.28957      223.75685      0.5          
   3956000  -623.2133       17.277832      221.19531      0.5          
   3957000  -623.06258     -81.883883      219.10282      0.5          
   3958000  -622.67139      139.74026      218.83648      0.5          
   3959000  -622.96602     -6.6644608      219.03584      0.5          
   3960000  -623.14308      124.33672      219.22855      0.5          
   3961000  -623.16041     -5.8716243      219.08409      0.5          
   3962000  -623.01387     -115.13519      218.12396      0.5          
   3963000  -623.15373      186.62346      216.20778      0.5          
   3964000  -623.36978      185.22953      218.30809      0.5          
   3965000  -623.44345     -245.86043      219.55771      0.5          
   3966000  -623.11139     -38.637757      217.76945      0.5          
   3967000  -622.895       -17.570563      216.29688      0.5          
   3968000  -623.18305      27.211396      216.20433      0.5          
   3969000  -623.14196     -70.467846      216.42634      0.5          
   3970000  -622.73837     -128.54394      220.46004      0.5          
   3971000  -622.73939      144.34218      216.49129      0.5          
   3972000  -622.45925      186.46878      218.1318       0.5          
   3973000  -622.66381     -84.326573      221.03054      0.5          
   3974000  -622.56727     -300.82734      220.64941      0.5          
   3975000  -622.59683      72.548244      220.96625      0.5          
   3976000  -622.77333      112.78797      218.5444       0.5          
   3977000  -622.87174     -39.435908      220.9533       0.5          
   3978000  -622.44988      71.060273      220.65912      0.5          
   3979000  -622.421       -10.621207      220.42628      0.5          
   3980000  -622.51926     -7.9466065      218.50685      0.5          
   3981000  -622.74583      20.631983      220.12428      0.5          
   3982000  -622.50506     -40.88645       220.07515      0.5          
   3983000  -622.43594      18.225476      220.22627      0.5          
   3984000  -622.19187     -85.329837      217.30731      0.5          
   3985000  -622.49858      119.35837      220.37856      0.5          
   3986000  -622.52575      87.216095      215.75675      0.5          
   3987000  -622.11162     -171.98695      216.81727      0.5          
   3988000  -622.10036     -100.78317      217.50803      0.5          
   3989000  -622.32339      137.19724      218.0395       0.5          
   3990000  -622.3834      -74.002486      218.93162      0.5          
   3991000  -621.8666      -242.70352      218.23868      0.5          
   3992000  -622.03732      77.530899      220.40853      0.5          
   3993000  -622.01936     -190.02833      219.22649      0.5          
   3994000  -622.11006     -174.78725      218.93623      0.5          
   3995000  -622.17383      326.75396      222.30888      0.5          
   3996000  -621.71807      102.18516      218.17205      0.5          
   3997000  -621.81306     -102.8103       219.57067      0.5          
   3998000  -621.84318      46.469563      221.12662      0.5          
   3999000  -621.93216      34.811375      219.01852      0.5          
   4000000  -621.98172      35.554224      220.69973      0.5          
Loop time of 5847 on 24 procs for 2000000 steps with 7050 atoms

Performance: 14.777 ns/day, 1.624 hours/ns, 342.056 timesteps/s, 2.411 Matom-step/s
99.5% CPU use with 24 MPI tasks x 1 OpenMP threads

MPI task timing breakdown:
Section |  min time  |  avg time  |  max time  |%varavg| %total
---------------------------------------------------------------
Pair    | 1543.1     | 3519.5     | 4091       |1434.8 | 60.19
Bond    | 16.623     | 18.315     | 19.544     |  15.1 |  0.31
Kspace  | 1159.9     | 1808.6     | 3841.4     |2051.0 | 30.93
Neigh   | 35.35      | 35.579     | 35.865     |   2.5 |  0.61
Comm    | 293.25     | 368.04     | 467.23     | 302.5 |  6.29
Output  | 0.091073   | 0.51969    | 0.54302    |  12.4 |  0.01
Modify  | 60.712     | 86.668     | 103.73     | 163.8 |  1.48
Other   |            | 9.835      |            |       |  0.17

Nlocal:         293.75 ave         352 max         237 min
Histogram: 1 0 3 0 7 9 2 1 0 1
Nghost:        5575.29 ave        6520 max        3962 min
Histogram: 4 3 1 0 0 0 0 4 3 9
Neighs:         127320 ave      153706 max       55198 min
Histogram: 3 1 0 0 0 0 0 2 12 6

Total # of neighbors = 3055692
Ave neighs/atom = 433.43149
Ave special neighs/atom = 2
Neighbor list builds = 8242
Dangerous builds = 0

unfix           COM_DRIFT
unfix           NVE
unfix           CPU_BALANCE
unfix           dens_profile
unfix           1
unfix           2
unfix           3

write_data      ${NAME}_final.data
write_data      CO2_final.data
System init for write_data ...
PPPM initialization ...
  using 12-bit tables for long-range coulomb (src/kspace.cpp:342)
  G vector (1/distance) = 0.20169663
  grid = 24 24 80
  stencil order = 5
  estimated absolute RMS force accuracy = 0.00286774
  estimated relative force accuracy = 8.6361139e-06
  using single precision FFTW3
  3d grid and FFT values/proc = 13357 4320
Generated 1 of 1 mixed pair_coeff terms from arithmetic mixing rule
Last active /omp style is kspace_style pppm/omp
reset_timestep  0

quit
