units		    real
atom_style	    full
boundary        p p p
pair_style      lj/cut/coul/long 14
pair_modify     shift yes mix arithmetic tail no
kspace_style    pppm 1e-5
bond_style      harmonic
angle_style     harmonic
processors      2 2 *

#----------------------------------------------------------------------------#
#                               Variables
#----------------------------------------------------------------------------#

variable  TEMP_INDEX       equal 220
variable  simulationTemp   equal ${TEMP_INDEX}
variable  simulationTemp   equal 220
variable  timestep         equal 0.5
variable  RandomSeed       equal 1000
variable  Seed_L           equal ${RandomSeed}*7
variable  Seed_L           equal 1000*7
variable  Seed_V1          equal ${RandomSeed}*2
variable  Seed_V1          equal 1000*2
variable  Seed_V2          equal ${RandomSeed}*5
variable  Seed_V2          equal 1000*5

variable  nz_bin           equal 100
variable  bin_size         equal 1/${nz_bin}
variable  bin_size         equal 1/100
variable  restartfreq      equal 2000000        # 1 ns
variable  balance_freq     equal 8000000        # 4 ns
variable  thermo_num       equal 1000
variable  Lz               equal lz
variable  TEMPERATURE      equal temp
variable  PRESSURE         equal press
variable  KE               equal ke
variable  PE               equal pe
variable  TOT_ENG          equal etotal
variable  ECOUPLE          equal ecouple
variable  ECONSERVE        equal econserve
variable  Nnvt             equal 200000     # 1 ns

#----------------------------------------------------------------------------#
#                        Simulation cell creation
#----------------------------------------------------------------------------#

region          box block 0 40 0 40 0 240

create_box      2 box                                       bond/types 1                                angle/types 1                               extra/bond/per/atom 2                       extra/angle/per/atom 1                      extra/special/per/atom 2
Created orthogonal box = (0 0 0) to (40 40 240)
  2 by 2 by 7 MPI processor grid

molecule        co2mol CO2.mol
Read molecule template co2mol:
# CO2 molecule file. TraPPE-Flex model.
  1 molecules
  0 fragments
  3 atoms with max type 2
  2 bonds with max type 1
  1 angles with max type 1
  0 dihedrals with max type 0
  0 impropers with max type 0
print           "Molecule file loaded successfully"
Molecule file loaded successfully

region          liquid  block 0 40 0 40 75 165
region          vapor_1 block 0 40 0 40 0 75
region          vapor_2 block 0 40 0 40 165 240

create_atoms   	0 random 2298 ${Seed_L}  liquid  mol co2mol 3 overlap 2 maxtry 10000
create_atoms   	0 random 2298 7000  liquid  mol co2mol 3 overlap 2 maxtry 10000
Created 6894 atoms
  using lattice units in orthogonal box = (0 0 0) to (40 40 240)
  create_atoms CPU = 0.230 seconds
create_atoms   	0 random 26 ${Seed_V1} vapor_1 mol co2mol 3 overlap 2 maxtry 10000
create_atoms   	0 random 26 2000 vapor_1 mol co2mol 3 overlap 2 maxtry 10000
Created 78 atoms
  using lattice units in orthogonal box = (0 0 0) to (40 40 240)
  create_atoms CPU = 0.008 seconds
create_atoms   	0 random 26 ${Seed_V2} vapor_2 mol co2mol 3 overlap 2 maxtry 10000
create_atoms   	0 random 26 5000 vapor_2 mol co2mol 3 overlap 2 maxtry 10000
Created 78 atoms
  using lattice units in orthogonal box = (0 0 0) to (40 40 240)
  create_atoms CPU = 0.008 seconds

include         trappe_flex.FF
#----------------------------------------------------------------------------#
# FORCEFIELD - TraPPE Flexible model for CO2 (DOI- 10.1021/acs.jced.9b00006)
#----------------------------------------------------------------------------#

pair_coeff      1   1  0.0536545107   2.8         # O=[C]=O
pair_coeff      2   2  0.1569891239   3.05        # [O]=C=O

bond_coeff      1   1028.266  1.16

angle_coeff     1   55.96  180

mass            1   12.010700                     # C
mass            2   15.999400                     # O

set type        1   charge     +0.7000            # C
Setting atom values ...
  2350 settings made for charge
set type        2   charge     -0.3500            # O
Setting atom values ...
  4700 settings made for charge
# read_restart   restart_CO2.2

print           "lz=${Lz}"
lz=240

#----------------------------------------------------------------------------#
#                           GROUPS / NEIGHBOUR-LIST / BALANCE
#----------------------------------------------------------------------------#

group           car  type 1
2350 atoms in group car
group           oxy  type 2
4700 atoms in group oxy

neighbor	    3.0 bin
neigh_modify    every 1 delay 0 check yes
run_style       verlet
balance         0.8 shift xyz 20 1.2 out tmp.balance
Balancing ...
PPPM initialization ...
  using 12-bit tables for long-range coulomb (src/kspace.cpp:342)
  G vector (1/distance) = 0.20169663
  grid = 24 24 80
  stencil order = 5
  estimated absolute RMS force accuracy = 0.00286774
  estimated relative force accuracy = 8.6361139e-06
  using single precision FFTW3
  3d grid and FFT values/proc = 6498 1728
Generated 1 of 1 mixed pair_coeff terms from arithmetic mixing rule
Last active /omp style is kspace_style pppm/omp
Neighbor list info ...
  update: every = 1 steps, delay = 0 steps, check = yes
  max neighbors/atom: 2000, page size: 100000
  master list distance cutoff = 17
  ghost atom cutoff = 17
  binsize = 8.5, bins = 5 5 29
  1 neighbor lists, perpetual/occasional/extra = 1 0 0
  (1) pair lj/cut/coul/long/omp, perpetual
      attributes: half, newton on, omp
      pair build: half/bin/newton/omp
      stencil: half/bin/3d
      bin: standard
 rebalancing time: 0.011 seconds
  iteration count = 14
  initial/final maximal load/proc = 687 298
  initial/final imbalance factor  = 2.7285106 1.1835461
  x cuts: 0 0.46875 1
  y cuts: 0 0.46875 1
  z cuts: 0 0.36160714 0.41741071 0.47098214 0.52455357 0.58258929 0.63839286 1

#----------------------------------------------------------------------------#
#                           CONGUGATE-GRADIENT MINIMIZATION/Initialization
#----------------------------------------------------------------------------#

minimize        1e-6 1e-8 100000 10000000
PPPM initialization ...
  using 12-bit tables for long-range coulomb (src/kspace.cpp:342)
  G vector (1/distance) = 0.20169663
  grid = 24 24 80
  stencil order = 5
  estimated absolute RMS force accuracy = 0.00286774
  estimated relative force accuracy = 8.6361139e-06
  using single precision FFTW3
  3d grid and FFT values/proc = 14000 4901
Generated 1 of 1 mixed pair_coeff terms from arithmetic mixing rule
Last active /omp style is kspace_style pppm/omp
Per MPI rank memory allocation (min/avg/max) = 8.74 | 9.175 | 9.553 Mbytes
   Step          Temp          E_pair         E_mol          TotEng         Press     
         0   0              49336.872      7.9026918e-12  49336.872      43177.231    
      2303   0             -11671.855      22.200108     -11649.655     -445.67277    
Loop time of 20.4263 on 28 procs for 2303 steps with 7050 atoms

99.4% CPU use with 28 MPI tasks x 1 OpenMP threads

Minimization stats:
  Stopping criterion = energy tolerance
  Energy initial, next-to-last, final = 
      49336.8715518035  -11649.6437336223    -11649.65463544
  Force two-norm initial, final = 12256.268 9.663013
  Force max component initial, final = 805.65186 1.2858854
  Final line search alpha, max atom move = 0.056836053 0.073084648
  Iterations, force evaluations = 2303 4533

MPI task timing breakdown:
Section |  min time  |  avg time  |  max time  |%varavg| %total
---------------------------------------------------------------
Pair    | 3.4031     | 11.926     | 16.842     | 111.9 | 58.39
Bond    | 0.033386   | 0.042794   | 0.051524   |   2.6 |  0.21
Kspace  | 2.6403     | 7.5438     | 16.091     | 141.2 | 36.93
Neigh   | 0.1167     | 0.11732    | 0.11843    |   0.1 |  0.57
Comm    | 0.51809    | 0.63537    | 0.6989     |   5.7 |  3.11
Output  | 0          | 0          | 0          |   0.0 |  0.00
Modify  | 0.01616    | 0.022852   | 0.032425   |   2.4 |  0.11
Other   |            | 0.138      |            |       |  0.68

Nlocal:        251.786 ave         361 max         109 min
Histogram: 3 5 0 1 1 1 4 2 9 2
Nghost:        5837.46 ave        7853 max        3591 min
Histogram: 7 1 0 1 5 2 0 3 5 4
Neighs:         131105 ave      214549 max       15405 min
Histogram: 4 0 4 0 1 3 1 7 4 4

Total # of neighbors = 3670931
Ave neighs/atom = 520.69943
Ave special neighs/atom = 2
Neighbor list builds = 25
Dangerous builds = 0
fix             COM_DRIFT all momentum 1 linear 1 1 1 rescale
velocity        all create ${simulationTemp} ${RandomSeed} mom yes rot yes dist gaussian
velocity        all create 220 ${RandomSeed} mom yes rot yes dist gaussian
velocity        all create 220 1000 mom yes rot yes dist gaussian
velocity        all zero linear
velocity        all zero angular
thermo_style    custom step etotal press temp dt
thermo_modify   flush yes
thermo          ${thermo_num}
thermo          1000
reset_timestep  0
write_data      ${NAME}_init.data
write_data      CO2_init.data
System init for write_data ...
PPPM initialization ...
  using 12-bit tables for long-range coulomb (src/kspace.cpp:342)
  G vector (1/distance) = 0.20169663
  grid = 24 24 80
  stencil order = 5
  estimated absolute RMS force accuracy = 0.00286774
  estimated relative force accuracy = 8.6361139e-06
  using single precision FFTW3
  3d grid and FFT values/proc = 14000 4901
Generated 1 of 1 mixed pair_coeff terms from arithmetic mixing rule
Last active /omp style is kspace_style pppm/omp

#----------------------------------------------------------------------------#
#                           Compute
#----------------------------------------------------------------------------#

compute         layers  all chunk/atom bin/1d z lower ${bin_size} units reduced
compute         layers  all chunk/atom bin/1d z lower 0.01 units reduced
compute         T       all temp
compute         pTensor all pressure T
compute         mom     all momentum

variable        TM      equal mass(all)
variable        vx_com  equal c_mom[1]/v_TM
variable        vy_com  equal c_mom[2]/v_TM
variable        vz_com  equal c_mom[3]/v_TM

#----------------------------------------------------------------------------#
#                           Write Headers to Files
#----------------------------------------------------------------------------#

print "#Step Pxx Pyy Pzz" file pressure_tensor.dat
#Step Pxx Pyy Pzz
print "#Step temp press ke pe etotal ecouple econserve" file Energy.dat
#Step temp press ke pe etotal ecouple econserve
print "#Step px py pz COM_vx COM_vy COM_vz" file Momentum.dat
#Step px py pz COM_vx COM_vy COM_vz

#----------------------------------------------------------------------------#
#                           NVT (Initialization/Production)
#----------------------------------------------------------------------------#

fix             NVE          all    nve
fix             NVT          all    temp/csvr  ${simulationTemp} ${simulationTemp} 100 ${RandomSeed}
fix             NVT          all    temp/csvr  220 ${simulationTemp} 100 ${RandomSeed}
fix             NVT          all    temp/csvr  220 220 100 ${RandomSeed}
fix             NVT          all    temp/csvr  220 220 100 1000
fix             CPU_BALANCE  all    balance    ${balance_freq} 0.8 shift xyz 20 1.2
fix             CPU_BALANCE  all    balance    8000000 0.8 shift xyz 20 1.2
fix		        dens_profile all    ave/chunk  10 100 1000 layers density/mass file massdens_profile.dat
fix             1            all    ave/time   10 100 1000 c_pTensor[1] c_pTensor[2] c_pTensor[3] file pressure_tensor.dat
fix             2            all    ave/time   ${thermo_num} 1 ${thermo_num} v_TEMPERATURE v_PRESSURE v_KE v_PE v_TOT_ENG v_ECOUPLE v_ECONSERVE file Energy.dat
fix             2            all    ave/time   1000 1 ${thermo_num} v_TEMPERATURE v_PRESSURE v_KE v_PE v_TOT_ENG v_ECOUPLE v_ECONSERVE file Energy.dat
fix             2            all    ave/time   1000 1 1000 v_TEMPERATURE v_PRESSURE v_KE v_PE v_TOT_ENG v_ECOUPLE v_ECONSERVE file Energy.dat
fix             3            all    ave/time   ${thermo_num} 1 ${thermo_num} c_mom[1] c_mom[2] c_mom[3] v_vx_com v_vy_com v_vz_com file Momentum.dat
fix             3            all    ave/time   1000 1 ${thermo_num} c_mom[1] c_mom[2] c_mom[3] v_vx_com v_vy_com v_vz_com file Momentum.dat
fix             3            all    ave/time   1000 1 1000 c_mom[1] c_mom[2] c_mom[3] v_vx_com v_vy_com v_vz_com file Momentum.dat

timestep        0.5
restart         ${restartfreq} restart_${NAME}.1 restart_${NAME}.2
restart         2000000 restart_${NAME}.1 restart_${NAME}.2
restart         2000000 restart_CO2.1 restart_${NAME}.2
restart         2000000 restart_CO2.1 restart_CO2.2
run             ${Nnvt}
run             200000
PPPM initialization ...
  using 12-bit tables for long-range coulomb (src/kspace.cpp:342)
  G vector (1/distance) = 0.20169663
  grid = 24 24 80
  stencil order = 5
  estimated absolute RMS force accuracy = 0.00286774
  estimated relative force accuracy = 8.6361139e-06
  using single precision FFTW3
  3d grid and FFT values/proc = 14000 4901
Generated 1 of 1 mixed pair_coeff terms from arithmetic mixing rule
Last active /omp style is kspace_style pppm/omp
Per MPI rank memory allocation (min/avg/max) = 8.227 | 8.374 | 8.725 Mbytes
   Step         TotEng         Press           Temp            Dt      
         0  -7027.074       104.61026      220            0.5          
      1000  -2998.1956      989.87644      216.09437      0.5          
      2000  -2404.8689      1170.809       200.22757      0.5          
      3000  -1949.3399     -262.92612      211.93437      0.5          
      4000  -1784.6996     -46.703926      225.42981      0.5          
      5000  -1711.4743     -52.108912      225.097        0.5          
      6000  -1487.7723     -53.740624      216.98609      0.5          
      7000  -1482.5058      70.010514      211.84016      0.5          
      8000  -1353.3526     -352.38723      216.9085       0.5          
      9000  -1152.5379     -437.48562      222.37147      0.5          
     10000  -944.24689     -130.8499       219.59163      0.5          
     11000  -758.37245     -165.94477      219.80096      0.5          
     12000  -779.78067     -196.88306      219.2684       0.5          
     13000  -548.38837      100.49885      221.14643      0.5          
     14000  -501.44537     -166.49603      221.106        0.5          
     15000  -444.84839     -95.411887      220.98714      0.5          
     16000  -453.62182      10.183294      219.84367      0.5          
     17000  -446.20066     -475.76286      218.94949      0.5          
     18000  -501.74948     -198.22236      219.53791      0.5          
     19000  -480.78085      64.795258      217.30024      0.5          
     20000  -495.78087     -45.157161      222.85328      0.5          
     21000  -635.80542     -259.68788      215.96136      0.5          
     22000  -640.31517      16.69751       217.61329      0.5          
     23000  -640.32896      208.58485      219.84019      0.5          
     24000  -637.73537     -200.68709      217.54098      0.5          
     25000  -514.57319     -85.866702      222.481        0.5          
     26000  -530.93046     -273.94233      219.20084      0.5          
     27000  -562.07459      54.457909      220.04137      0.5          
     28000  -646.73882      208.09922      217.8114       0.5          
     29000  -598.40535      116.34734      217.60665      0.5          
     30000  -716.75875     -160.79454      218.73252      0.5          
     31000  -625.38714     -237.11909      222.91497      0.5          
     32000  -776.87375     -248.27498      217.75014      0.5          
     33000  -804.50601      13.538936      219.06928      0.5          
     34000  -672.41719     -1.3398673      224.18193      0.5          
     35000  -836.02971     -148.18957      217.88701      0.5          
     36000  -936.84109     -178.91891      217.29779      0.5          
     37000  -920.34239     -69.017199      218.51097      0.5          
     38000  -774.17826     -27.13708       221.67997      0.5          
     39000  -819.723       -160.44626      219.01829      0.5          
     40000  -914.81777      121.92108      219.56766      0.5          
     41000  -915.34542     -45.17043       219.15075      0.5          
     42000  -878.97841      18.802841      223.17563      0.5          
     43000  -815.05969      277.71189      225.69106      0.5          
     44000  -960.96122     -133.35691      218.31679      0.5          
     45000  -967.21176     -342.764        216.76467      0.5          
     46000  -970.61534      90.909293      222.91296      0.5          
     47000  -1027.2187     -46.285696      221.72944      0.5          
     48000  -1140.1987     -87.612515      220.22733      0.5          
     49000  -1174.7909      329.27636      221.28035      0.5          
     50000  -1095.8967     -181.56141      222.39154      0.5          
     51000  -1292.9552     -12.144825      218.71794      0.5          
     52000  -1272.5366      157.64436      218.98931      0.5          
     53000  -1330.1461      229.78272      220.54485      0.5          
     54000  -1232.9972      275.28115      220.84547      0.5          
     55000  -1446.7476      253.21027      216.71441      0.5          
     56000  -1311.5469      146.98086      217.39875      0.5          
     57000  -1211.3784     -249.81799      219.19928      0.5          
     58000  -1193.8359      176.53756      222.80631      0.5          
     59000  -1224.6622      335.09159      221.05337      0.5          
     60000  -1260.327      -127.62285      215.19996      0.5          
     61000  -1088.2511     -48.334008      220.39303      0.5          
     62000  -1092.0387      34.794312      218.548        0.5          
     63000  -1142.2851     -5.703446       216.62703      0.5          
     64000  -886.82827      7.3360363      223.93536      0.5          
     65000  -993.69921      27.329073      219.19893      0.5          
     66000  -1039.9693     -91.917888      216.24465      0.5          
     67000  -1033.5694     -293.87641      217.48625      0.5          
     68000  -940.34804     -269.65024      217.13777      0.5          
     69000  -815.57843     -26.867538      219.62018      0.5          
     70000  -753.88715     -6.2934717      221.27306      0.5          
     71000  -708.22942      42.141238      224.9848       0.5          
     72000  -811.16738     -121.61323      217.99871      0.5          
     73000  -792.80177     -72.4092        219.55949      0.5          
     74000  -681.26963     -235.7586       221.56352      0.5          
     75000  -821.82156     -37.09723       217.53641      0.5          
     76000  -825.37989      137.17701      217.67976      0.5          
     77000  -836.47462     -299.99271      216.73125      0.5          
     78000  -779.4653      -133.69835      219.05968      0.5          
     79000  -773.00631     -106.69357      221.01511      0.5          
     80000  -837.25563      7.1488725      219.28043      0.5          
     81000  -846.57948      13.674333      218.52319      0.5          
     82000  -787.27981     -30.719007      221.14337      0.5          
     83000  -917.95173     -168.96995      220.63541      0.5          
     84000  -924.06534     -28.67134       219.50537      0.5          
     85000  -910.70695      95.834375      219.96833      0.5          
     86000  -988.19216     -184.60201      216.70154      0.5          
     87000  -910.45435     -59.873129      222.30677      0.5          
     88000  -967.95849      34.60807       222.5394       0.5          
     89000  -1007.972       119.00229      218.58219      0.5          
     90000  -1006.0511     -153.2052       219.66527      0.5          
     91000  -978.65038      63.950739      222.70957      0.5          
     92000  -928.65244      112.49885      222.20207      0.5          
     93000  -1050.1033      260.16401      219.31222      0.5          
     94000  -1056.286      -52.116233      218.33295      0.5          
     95000  -1066.7763     -51.38133       219.35406      0.5          
     96000  -1143.2055      315.74781      219.59076      0.5          
     97000  -1018.8859      326.00274      219.65149      0.5          
     98000  -964.32246     -289.91929      219.35772      0.5          
     99000  -1092.7603      50.745436      218.2282       0.5          
    100000  -1085.3849      211.26089      217.92658      0.5          
    101000  -996.28739     -118.21977      220.74893      0.5          
    102000  -1016.9835      131.94417      218.04757      0.5          
    103000  -883.28284      138.03637      222.60877      0.5          
    104000  -940.64357     -269.42058      220.96752      0.5          
    105000  -916.09226     -175.96098      221.30726      0.5          
    106000  -969.86808      214.59434      217.90864      0.5          
    107000  -924.90355      286.86226      218.76328      0.5          
    108000  -848.99172     -145.60593      221.77932      0.5          
    109000  -915.02198     -207.15508      217.76176      0.5          
    110000  -886.97765     -8.4249433      219.36449      0.5          
    111000  -806.03821     -52.663178      221.41183      0.5          
    112000  -877.38064      36.910711      221.27381      0.5          
    113000  -1028.0214     -147.42223      217.50176      0.5          
    114000  -767.97834     -379.9332       221.72363      0.5          
    115000  -853.27308     -55.756119      219.63618      0.5          
    116000  -841.17103      121.13462      224.80388      0.5          
    117000  -804.50613      242.31617      223.44844      0.5          
    118000  -905.9824      -28.56031       217.68397      0.5          
    119000  -882.83439     -151.67875      219.36632      0.5          
    120000  -788.27582      144.93127      224.30971      0.5          
    121000  -872.75257     -118.45718      222.24859      0.5          
    122000  -958.21429     -50.261037      216.71898      0.5          
    123000  -763.22528      228.8965       224.84134      0.5          
    124000  -867.13628     -31.399651      219.64783      0.5          
    125000  -894.4784      -177.19962      218.2364       0.5          
    126000  -947.13805      151.07281      223.01674      0.5          
    127000  -998.64745     -175.75523      217.61333      0.5          
    128000  -915.8544      -98.777944      220.2341       0.5          
    129000  -949.72933      19.494406      217.22805      0.5          
    130000  -786.43863      281.23371      224.03859      0.5          
    131000  -749.8651       10.96802       221.45543      0.5          
    132000  -933.49947     -225.67988      217.93599      0.5          
    133000  -935.11597     -9.0224385      217.23236      0.5          
    134000  -1032.9069     -306.17755      216.1623       0.5          
    135000  -976.19165      98.251592      216.55611      0.5          
    136000  -809.82523      258.53326      222.80049      0.5          
    137000  -897.91532     -36.586298      221.0835       0.5          
    138000  -952.31779     -16.511904      221.7248       0.5          
    139000  -894.11272      147.11132      221.79843      0.5          
    140000  -788.72125      111.46427      220.63915      0.5          
    141000  -982.69376     -246.79549      219.69441      0.5          
    142000  -940.01171     -102.78237      219.6948       0.5          
    143000  -1004.8457      109.17142      217.012        0.5          
    144000  -867.29051      198.40876      219.38145      0.5          
    145000  -946.74457     -108.61566      218.84364      0.5          
    146000  -915.09213     -175.9088       221.39986      0.5          
    147000  -892.13683      85.228162      220.24783      0.5          
    148000  -816.32423      278.69485      223.69856      0.5          
    149000  -724.98831     -26.697654      223.67752      0.5          
    150000  -823.71287     -139.51847      222.28629      0.5          
    151000  -726.22429      81.923605      224.74018      0.5          
    152000  -867.06511      108.94482      219.73503      0.5          
    153000  -958.34602     -1.9537517      216.7606       0.5          
    154000  -936.49762     -58.782833      217.41299      0.5          
    155000  -937.40524      40.822921      219.99196      0.5          
    156000  -875.78917      211.16045      218.44806      0.5          
    157000  -858.7119      -166.37176      219.04769      0.5          
    158000  -800.32315      71.042985      221.11303      0.5          
    159000  -877.16623      53.430239      219.66644      0.5          
    160000  -939.56792     -222.70083      217.81971      0.5          
    161000  -891.50571      181.12774      219.65406      0.5          
    162000  -827.32248     -17.412397      221.64636      0.5          
    163000  -876.84345      59.587069      221.95208      0.5          
    164000  -835.718        184.28192      221.16442      0.5          
    165000  -879.61512      63.428311      221.73838      0.5          
    166000  -897.72742     -99.006988      220.99895      0.5          
    167000  -1016.3973      52.534958      218.65275      0.5          
    168000  -988.22414      77.846451      220.23339      0.5          
    169000  -827.54527     -189.4131       220.83568      0.5          
    170000  -897.41198     -252.17703      221.65693      0.5          
    171000  -963.80303     -159.22538      220.80151      0.5          
    172000  -912.13832      222.46368      219.78616      0.5          
    173000  -915.45088      94.465562      218.12644      0.5          
    174000  -897.49118     -352.71055      217.78496      0.5          
    175000  -871.67669     -128.38852      222.54183      0.5          
    176000  -857.52165     -21.827332      224.39119      0.5          
    177000  -891.51417      281.48856      221.23476      0.5          
    178000  -939.60163     -6.1740649      217.60679      0.5          
    179000  -879.71571     -65.830609      217.95521      0.5          
    180000  -952.12729     -40.347042      217.24785      0.5          
    181000  -837.75411      92.6387        220.52954      0.5          
    182000  -851.07712      86.155976      220.47778      0.5          
    183000  -873.74816     -69.08321       219.08628      0.5          
    184000  -830.08166      120.33512      218.39524      0.5          
    185000  -848.90426      184.80543      219.5968       0.5          
    186000  -727.51283      199.28022      223.06997      0.5          
    187000  -855.01796     -276.68969      221.1446       0.5          
    188000  -747.89425     -147.18427      220.83169      0.5          
    189000  -805.04311      210.68817      218.47615      0.5          
    190000  -850.00612     -107.59985      215.38667      0.5          
    191000  -831.32831     -46.648444      217.16103      0.5          
    192000  -762.97771     -93.904454      220.18959      0.5          
    193000  -713.90075      15.760033      222.66825      0.5          
    194000  -654.74236      264.42323      225.03267      0.5          
    195000  -839.29167      66.362637      217.92125      0.5          
    196000  -812.7394       95.125408      219.11164      0.5          
    197000  -831.9009       119.09248      220.60619      0.5          
    198000  -752.92294     -176.92872      221.16944      0.5          
    199000  -832.36988      80.073831      219.78926      0.5          
    200000  -815.56488      3.4267229      221.57479      0.5          
Loop time of 619.323 on 28 procs for 200000 steps with 7050 atoms

Performance: 13.951 ns/day, 1.720 hours/ns, 322.933 timesteps/s, 2.277 Matom-step/s
99.4% CPU use with 28 MPI tasks x 1 OpenMP threads

MPI task timing breakdown:
Section |  min time  |  avg time  |  max time  |%varavg| %total
---------------------------------------------------------------
Pair    | 232.7      | 298.86     | 463.08     | 355.7 | 48.26
Bond    | 1.2952     | 1.5763     | 2.1039     |  23.4 |  0.25
Kspace  | 114.43     | 269.78     | 330.03     | 354.4 | 43.56
Neigh   | 5.0117     | 5.03       | 5.0766     |   0.7 |  0.81
Comm    | 24.8       | 33.003     | 40.845     |  86.7 |  5.33
Output  | 0.047577   | 0.34949    | 0.36115    |   9.8 |  0.06
Modify  | 7.2048     | 9.6813     | 14.863     |  71.9 |  1.56
Other   |            | 1.044      |            |       |  0.17

Nlocal:        251.786 ave         365 max         194 min
Histogram: 9 7 2 2 0 0 1 2 2 3
Nghost:        5645.54 ave        6582 max        4408 min
Histogram: 4 4 0 0 0 0 5 8 4 3
Neighs:         112359 ave      163000 max       92063 min
Histogram: 5 10 5 2 1 1 0 2 0 2

Total # of neighbors = 3146039
Ave neighs/atom = 446.24667
Ave special neighs/atom = 2
Neighbor list builds = 1037
Dangerous builds = 0

unfix           NVT
unfix           COM_DRIFT
unfix           NVE
unfix           CPU_BALANCE
unfix           dens_profile
unfix           1
unfix           2
unfix           3

write_data      ${NAME}_final.data
write_data      CO2_final.data
System init for write_data ...
PPPM initialization ...
  using 12-bit tables for long-range coulomb (src/kspace.cpp:342)
  G vector (1/distance) = 0.20169663
  grid = 24 24 80
  stencil order = 5
  estimated absolute RMS force accuracy = 0.00286774
  estimated relative force accuracy = 8.6361139e-06
  using single precision FFTW3
  3d grid and FFT values/proc = 13357 4464
Generated 1 of 1 mixed pair_coeff terms from arithmetic mixing rule
Last active /omp style is kspace_style pppm/omp
reset_timestep  0

quit
