units		    real
atom_style	    full
boundary        p p p
pair_style      lj/cut/coul/long 14
pair_modify     shift yes mix arithmetic tail no
kspace_style    pppm 1e-5
bond_style      harmonic
angle_style     harmonic
processors      1 1 1

#----------------------------------------------------------------------------#
#                               Variables
#----------------------------------------------------------------------------#

variable  TEMP_INDEX       equal 220
variable  simulationTemp   equal ${TEMP_INDEX}
variable  simulationTemp   equal 220
variable  timestep         equal 0.5
variable  RandomSeed       equal 1000
variable  Seed_L           equal ${RandomSeed}*7
variable  Seed_L           equal 1000*7
variable  Seed_V1          equal ${RandomSeed}*2
variable  Seed_V1          equal 1000*2
variable  Seed_V2          equal ${RandomSeed}*5
variable  Seed_V2          equal 1000*5

variable  nz_bin           equal 100
variable  bin_size         equal 1/${nz_bin}
variable  bin_size         equal 1/100
variable  restartfreq      equal 2000000        # 1 ns
variable  balance_freq     equal 8000000        # 4 ns
variable  thermo_num       equal 1000
variable  Lz               equal lz
variable  TEMPERATURE      equal temp
variable  PRESSURE         equal press
variable  KE               equal ke
variable  PE               equal pe
variable  TOT_ENG          equal etotal
variable  ECOUPLE          equal ecouple
variable  ECONSERVE        equal econserve
variable  Nnvt             equal 200000     # 1 ns

#----------------------------------------------------------------------------#
#                        Simulation cell creation
#----------------------------------------------------------------------------#

region          box block 0 40 0 40 0 240

create_box      2 box                                       bond/types 1                                angle/types 1                               extra/bond/per/atom 2                       extra/angle/per/atom 1                      extra/special/per/atom 2
Created orthogonal box = (0 0 0) to (40 40 240)
  1 by 1 by 1 MPI processor grid

molecule        co2mol CO2.mol
Read molecule template co2mol:
# CO2 molecule file. TraPPE-Flex model.
  1 molecules
  0 fragments
  3 atoms with max type 2
  2 bonds with max type 1
  1 angles with max type 1
  0 dihedrals with max type 0
  0 impropers with max type 0
print           "Molecule file loaded successfully"
Molecule file loaded successfully

region          liquid  block 0 40 0 40 75 165
region          vapor_1 block 0 40 0 40 0 75
region          vapor_2 block 0 40 0 40 165 240

create_atoms   	0 random 2298 ${Seed_L}  liquid  mol co2mol 3 overlap 2 maxtry 10000
create_atoms   	0 random 2298 7000  liquid  mol co2mol 3 overlap 2 maxtry 10000
Created 6894 atoms
  using lattice units in orthogonal box = (0 0 0) to (40 40 240)
  create_atoms CPU = 1.652 seconds
create_atoms   	0 random 26 ${Seed_V1} vapor_1 mol co2mol 3 overlap 2 maxtry 10000
create_atoms   	0 random 26 2000 vapor_1 mol co2mol 3 overlap 2 maxtry 10000
Created 78 atoms
  using lattice units in orthogonal box = (0 0 0) to (40 40 240)
  create_atoms CPU = 0.007 seconds
create_atoms   	0 random 26 ${Seed_V2} vapor_2 mol co2mol 3 overlap 2 maxtry 10000
create_atoms   	0 random 26 5000 vapor_2 mol co2mol 3 overlap 2 maxtry 10000
Created 78 atoms
  using lattice units in orthogonal box = (0 0 0) to (40 40 240)
  create_atoms CPU = 0.008 seconds

include         trappe_flex.FF
#----------------------------------------------------------------------------#
# FORCEFIELD - TraPPE Flexible model for CO2 (DOI- 10.1021/acs.jced.9b00006)
#----------------------------------------------------------------------------#

pair_coeff      1   1  0.0536545107   2.8         # O=[C]=O
pair_coeff      2   2  0.1569891239   3.05        # [O]=C=O

bond_coeff      1   1028.266  1.16

angle_coeff     1   55.96  180

mass            1   12.010700                     # C
mass            2   15.999400                     # O

set type        1   charge     +0.7000            # C
Setting atom values ...
  2350 settings made for charge
set type        2   charge     -0.3500            # O
Setting atom values ...
  4700 settings made for charge
# read_restart   restart_CO2.2

print           "lz=${Lz}"
lz=240

#----------------------------------------------------------------------------#
#                           GROUPS / NEIGHBOUR-LIST / BALANCE
#----------------------------------------------------------------------------#

group           car  type 1
2350 atoms in group car
group           oxy  type 2
4700 atoms in group oxy

neighbor	    3.0 bin
neigh_modify    every 1 delay 0 check yes
run_style       verlet
balance         0.8 shift xyz 20 1.2 out tmp.balance
Balancing ...
PPPM initialization ...
  using 12-bit tables for long-range coulomb (src/kspace.cpp:342)
  G vector (1/distance) = 0.20169663
  grid = 24 24 80
  stencil order = 5
  estimated absolute RMS force accuracy = 0.00286774
  estimated relative force accuracy = 8.6361139e-06
  using single precision FFTW3
  3d grid and FFT values/proc = 82646 46080
Generated 1 of 1 mixed pair_coeff terms from arithmetic mixing rule
Last active /omp style is kspace_style pppm/omp
Neighbor list info ...
  update: every = 1 steps, delay = 0 steps, check = yes
  max neighbors/atom: 2000, page size: 100000
  master list distance cutoff = 17
  ghost atom cutoff = 17
  binsize = 8.5, bins = 5 5 29
  1 neighbor lists, perpetual/occasional/extra = 1 0 0
  (1) pair lj/cut/coul/long/omp, perpetual
      attributes: half, newton on, omp
      pair build: half/bin/newton/omp
      stencil: half/bin/3d
      bin: standard
 rebalancing time: 0.006 seconds
  iteration count = 1
  initial/final maximal load/proc = 7050 7050
  initial/final imbalance factor  = 1 1
  x cuts: 0 1
  y cuts: 0 1
  z cuts: 0 1

#----------------------------------------------------------------------------#
#                           CONGUGATE-GRADIENT MINIMIZATION/Initialization
#----------------------------------------------------------------------------#

minimize        1e-6 1e-8 100000 10000000
PPPM initialization ...
  using 12-bit tables for long-range coulomb (src/kspace.cpp:342)
  G vector (1/distance) = 0.20169663
  grid = 24 24 80
  stencil order = 5
  estimated absolute RMS force accuracy = 0.00286774
  estimated relative force accuracy = 8.6361139e-06
  using single precision FFTW3
  3d grid and FFT values/proc = 82646 46080
Generated 1 of 1 mixed pair_coeff terms from arithmetic mixing rule
Last active /omp style is kspace_style pppm/omp
Per MPI rank memory allocation (min/avg/max) = 33.57 | 33.57 | 33.57 Mbytes
   Step          Temp          E_pair         E_mol          TotEng         Press     
         0   0              49336.872      7.9026918e-12  49336.872      43177.231    
      4164   0             -12061.324      22.621082     -12038.703     -242.70439    
Loop time of 689.359 on 1 procs for 4164 steps with 7050 atoms

99.5% CPU use with 1 MPI tasks x 1 OpenMP threads

Minimization stats:
  Stopping criterion = energy tolerance
  Energy initial, next-to-last, final = 
      49336.8715510149  -12038.6907174316  -12038.7026839949
  Force two-norm initial, final = 12256.268 5.7601729
  Force max component initial, final = 805.65186 0.52719177
  Final line search alpha, max atom move = 0.043647524 0.023010615
  Iterations, force evaluations = 4164 8258

MPI task timing breakdown:
Section |  min time  |  avg time  |  max time  |%varavg| %total
---------------------------------------------------------------
Pair    | 634.07     | 634.07     | 634.07     |   0.0 | 91.98
Bond    | 1.8168     | 1.8168     | 1.8168     |   0.0 |  0.26
Kspace  | 47.556     | 47.556     | 47.556     |   0.0 |  6.90
Neigh   | 3.7654     | 3.7654     | 3.7654     |   0.0 |  0.55
Comm    | 0.95398    | 0.95398    | 0.95398    |   0.0 |  0.14
Output  | 0          | 0          | 0          |   0.0 |  0.00
Modify  | 0.10542    | 0.10542    | 0.10542    |   0.0 |  0.02
Other   |            | 1.088      |            |       |  0.16

Nlocal:           7050 ave        7050 max        7050 min
Histogram: 1 0 0 0 0 0 0 0 0 0
Nghost:          17234 ave       17234 max       17234 min
Histogram: 1 0 0 0 0 0 0 0 0 0
Neighs:    3.90986e+06 ave 3.90986e+06 max 3.90986e+06 min
Histogram: 1 0 0 0 0 0 0 0 0 0

Total # of neighbors = 3909857
Ave neighs/atom = 554.58965
Ave special neighs/atom = 2
Neighbor list builds = 40
Dangerous builds = 0
fix             COM_DRIFT all momentum 1 linear 1 1 1 rescale
velocity        all create ${simulationTemp} ${RandomSeed} mom yes rot yes dist gaussian
velocity        all create 220 ${RandomSeed} mom yes rot yes dist gaussian
velocity        all create 220 1000 mom yes rot yes dist gaussian
velocity        all zero linear
velocity        all zero angular
thermo_style    custom step etotal press temp dt
thermo_modify   flush yes
thermo          ${thermo_num}
thermo          1000
reset_timestep  0
write_data      ${NAME}_init.data
write_data      CO2_init.data
System init for write_data ...
PPPM initialization ...
  using 12-bit tables for long-range coulomb (src/kspace.cpp:342)
  G vector (1/distance) = 0.20169663
  grid = 24 24 80
  stencil order = 5
  estimated absolute RMS force accuracy = 0.00286774
  estimated relative force accuracy = 8.6361139e-06
  using single precision FFTW3
  3d grid and FFT values/proc = 82646 46080
Generated 1 of 1 mixed pair_coeff terms from arithmetic mixing rule
Last active /omp style is kspace_style pppm/omp

#----------------------------------------------------------------------------#
#                           Compute
#----------------------------------------------------------------------------#

compute         layers  all chunk/atom bin/1d z lower ${bin_size} units reduced
compute         layers  all chunk/atom bin/1d z lower 0.01 units reduced
compute         T       all temp
compute         pTensor all pressure T
compute         mom     all momentum

variable        TM      equal mass(all)
variable        vx_com  equal c_mom[1]/v_TM
variable        vy_com  equal c_mom[2]/v_TM
variable        vz_com  equal c_mom[3]/v_TM

#----------------------------------------------------------------------------#
#                           Write Headers to Files
#----------------------------------------------------------------------------#

print "#Step Pxx Pyy Pzz" file pressure_tensor.dat
#Step Pxx Pyy Pzz
print "#Step temp press ke pe etotal ecouple econserve" file Energy.dat
#Step temp press ke pe etotal ecouple econserve
print "#Step px py pz COM_vx COM_vy COM_vz" file Momentum.dat
#Step px py pz COM_vx COM_vy COM_vz

#----------------------------------------------------------------------------#
#                           NVT (Initialization/Production)
#----------------------------------------------------------------------------#

fix             NVE          all    nve
fix             NVT          all    temp/csvr  ${simulationTemp} ${simulationTemp} 100 ${RandomSeed}
fix             NVT          all    temp/csvr  220 ${simulationTemp} 100 ${RandomSeed}
fix             NVT          all    temp/csvr  220 220 100 ${RandomSeed}
fix             NVT          all    temp/csvr  220 220 100 1000
fix             CPU_BALANCE  all    balance    ${balance_freq} 0.8 shift xyz 20 1.2
fix             CPU_BALANCE  all    balance    8000000 0.8 shift xyz 20 1.2
fix		        dens_profile all    ave/chunk  10 100 1000 layers density/mass file massdens_profile.dat
fix             1            all    ave/time   10 100 1000 c_pTensor[1] c_pTensor[2] c_pTensor[3] file pressure_tensor.dat
fix             2            all    ave/time   ${thermo_num} 1 ${thermo_num} v_TEMPERATURE v_PRESSURE v_KE v_PE v_TOT_ENG v_ECOUPLE v_ECONSERVE file Energy.dat
fix             2            all    ave/time   1000 1 ${thermo_num} v_TEMPERATURE v_PRESSURE v_KE v_PE v_TOT_ENG v_ECOUPLE v_ECONSERVE file Energy.dat
fix             2            all    ave/time   1000 1 1000 v_TEMPERATURE v_PRESSURE v_KE v_PE v_TOT_ENG v_ECOUPLE v_ECONSERVE file Energy.dat
fix             3            all    ave/time   ${thermo_num} 1 ${thermo_num} c_mom[1] c_mom[2] c_mom[3] v_vx_com v_vy_com v_vz_com file Momentum.dat
fix             3            all    ave/time   1000 1 ${thermo_num} c_mom[1] c_mom[2] c_mom[3] v_vx_com v_vy_com v_vz_com file Momentum.dat
fix             3            all    ave/time   1000 1 1000 c_mom[1] c_mom[2] c_mom[3] v_vx_com v_vy_com v_vz_com file Momentum.dat

timestep        0.5
restart         ${restartfreq} restart_${NAME}.1 restart_${NAME}.2
restart         2000000 restart_${NAME}.1 restart_${NAME}.2
restart         2000000 restart_CO2.1 restart_${NAME}.2
restart         2000000 restart_CO2.1 restart_CO2.2
run             ${Nnvt}
run             200000
PPPM initialization ...
  using 12-bit tables for long-range coulomb (src/kspace.cpp:342)
  G vector (1/distance) = 0.20169663
  grid = 24 24 80
  stencil order = 5
  estimated absolute RMS force accuracy = 0.00286774
  estimated relative force accuracy = 8.6361139e-06
  using single precision FFTW3
  3d grid and FFT values/proc = 82646 46080
Generated 1 of 1 mixed pair_coeff terms from arithmetic mixing rule
Last active /omp style is kspace_style pppm/omp
Per MPI rank memory allocation (min/avg/max) = 34.89 | 34.89 | 34.89 Mbytes
   Step         TotEng         Press           Temp            Dt      
         0  -7416.1221      307.57864      220            0.5          
      1000  -3344.6079      1673.996       223.50432      0.5          
      2000  -2823.3231      1331.6022      198.36884      0.5          
      3000  -2413.1396     -178.03284      212.09993      0.5          
      4000  -2361.489       266.72786      226.6283       0.5          
      5000  -2236.6443      141.86851      222.50378      0.5          
      6000  -1888.3065     -22.801592      217.03318      0.5          
      7000  -1711.5288     -343.18228      210.16254      0.5          
      8000  -1534.8647     -360.97852      215.47797      0.5          
      9000  -1209.9821     -353.43078      221.34283      0.5          
     10000  -1007.1682     -335.78418      219.03631      0.5          
     11000  -801.55421     -151.1276       218.31668      0.5          
     12000  -781.99734     -99.588019      217.79633      0.5          
     13000  -518.09795     -214.03502      222.94008      0.5          
     14000  -534.46874     -259.67954      223.77462      0.5          
     15000  -487.52        -154.89048      221.92026      0.5          
     16000  -546.01386     -304.86389      219.57161      0.5          
     17000  -525.91918     -119.49689      221.28211      0.5          
     18000  -618.73452     -1.8310128      221.17639      0.5          
     19000  -679.21684     -137.89189      219.19775      0.5          
     20000  -735.96299      1.4188832      220.20075      0.5          
     21000  -909.43819     -3.8856813      217.83486      0.5          
     22000  -960.83288     -89.646029      217.40581      0.5          
     23000  -1054.276       37.215038      218.04431      0.5          
     24000  -1062.3283      109.02085      219.04097      0.5          
     25000  -1014.3464      218.70902      222.80822      0.5          
     26000  -1030.0864     -122.6373       221.11426      0.5          
     27000  -1015.5656     -2.3179029      219.99464      0.5          
     28000  -994.44086     -87.215043      220.52365      0.5          
     29000  -938.00683     -148.20737      220.63222      0.5          
     30000  -1020.6391      130.35025      216.7074       0.5          
     31000  -799.19541      214.36817      221.36693      0.5          
     32000  -930.86118     -171.47245      216.91246      0.5          
     33000  -918.60869      35.265869      219.37506      0.5          
     34000  -751.31041      2.4418726      220.69355      0.5          
     35000  -856.12252      159.6705       219.81558      0.5          
     36000  -971.52651      119.84387      219.03441      0.5          
     37000  -954.93418     -17.15487       219.3831       0.5          
     38000  -848.63659     -226.35737      220.83803      0.5          
     39000  -861.42644      151.40856      220.55562      0.5          
     40000  -895.82028      99.565873      218.34607      0.5          
     41000  -853.99508      117.67211      222.04581      0.5          
     42000  -793.24867     -356.03757      220.24738      0.5          
     43000  -702.06546      194.11808      224.211        0.5          
     44000  -805.37113     -189.70258      219.72886      0.5          
     45000  -806.56579     -186.60963      219.09084      0.5          
     46000  -749.00007     -15.372266      218.65567      0.5          
     47000  -736.71867     -180.43292      221.36839      0.5          
     48000  -745.20471     -312.36392      224.99764      0.5          
     49000  -844.64185      68.719204      219.12         0.5          
     50000  -824.70281      218.16516      222.11498      0.5          
     51000  -937.64518     -197.21023      219.27894      0.5          
     52000  -894.72543      42.347733      221.14782      0.5          
     53000  -902.38084      262.58288      217.5448       0.5          
     54000  -810.86329      121.1716       221.13269      0.5          
     55000  -1002.6678      153.52728      215.18834      0.5          
     56000  -914.85097      74.981189      218.0759       0.5          
     57000  -848.04723     -278.54491      220.65153      0.5          
     58000  -891.05754      294.99029      220.8955       0.5          
     59000  -948.6639       286.07303      219.64467      0.5          
     60000  -1004.9768     -168.38294      215.37483      0.5          
     61000  -900.72076      45.768729      221.11734      0.5          
     62000  -917.67282      170.57606      217.78375      0.5          
     63000  -930.08807     -261.82115      218.47656      0.5          
     64000  -748.8705      -18.955241      225.95237      0.5          
     65000  -809.44247     -44.020745      218.93546      0.5          
     66000  -937.62719      178.26881      216.08726      0.5          
     67000  -937.6864      -23.871533      217.81281      0.5          
     68000  -878.99999     -147.51548      217.11936      0.5          
     69000  -754.30751     -62.138159      221.37592      0.5          
     70000  -665.80032     -361.28314      222.07109      0.5          
     71000  -681.81741     -67.746834      224.48478      0.5          
     72000  -806.91265     -276.32649      217.95333      0.5          
     73000  -850.23058     -124.95572      218.72464      0.5          
     74000  -713.22954     -63.480831      221.16357      0.5          
     75000  -909.45566      227.46448      219.87756      0.5          
     76000  -943.28574     -145.66964      220.57973      0.5          
     77000  -963.14669     -125.1904       217.36624      0.5          
     78000  -881.77596      24.408558      217.80497      0.5          
     79000  -933.48475      99.157084      218.04241      0.5          
     80000  -895.59654      60.148674      218.54845      0.5          
     81000  -894.57277     -57.971973      219.45197      0.5          
     82000  -772.42914      328.51989      222.7992       0.5          
     83000  -829.14934     -170.9782       219.32731      0.5          
     84000  -820.9431      -233.09951      218.78436      0.5          
     85000  -836.98532      98.831775      218.63951      0.5          
     86000  -877.34428      75.840428      218.93585      0.5          
     87000  -769.036        243.97166      223.9874       0.5          
     88000  -797.05501     -171.87965      221.10811      0.5          
     89000  -852.72231     -316.14251      218.7963       0.5          
     90000  -887.86528     -66.580406      219.96329      0.5          
     91000  -852.50204     -108.77005      218.7605       0.5          
     92000  -739.92926      66.895885      223.05803      0.5          
     93000  -848.62461      58.111523      218.55554      0.5          
     94000  -794.14368     -111.14781      218.16367      0.5          
     95000  -793.68813      33.965635      218.32176      0.5          
     96000  -879.31757     -95.701948      219.32735      0.5          
     97000  -764.91227     -80.081704      221.48153      0.5          
     98000  -784.91603     -117.58158      220.04275      0.5          
     99000  -874.70167      42.314707      218.67016      0.5          
    100000  -882.95561      78.473654      218.96979      0.5          
    101000  -848.63784     -268.20808      220.97517      0.5          
    102000  -880.67721     -14.079748      216.65485      0.5          
    103000  -741.4292       194.06591      224.05192      0.5          
    104000  -793.67294     -87.525469      221.48627      0.5          
    105000  -768.33285      19.283419      222.15898      0.5          
    106000  -869.48874     -293.70106      218.86376      0.5          
    107000  -855.10651     -166.63995      218.07971      0.5          
    108000  -786.95547      219.31937      221.6131       0.5          
    109000  -894.19604      302.24322      217.36521      0.5          
    110000  -826.58084     -268.49495      219.74955      0.5          
    111000  -866.90582     -86.281331      221.38847      0.5          
    112000  -893.9491       281.50359      218.34778      0.5          
    113000  -1045.3726     -90.600242      217.46642      0.5          
    114000  -808.79222     -77.182932      223.44011      0.5          
    115000  -868.86594     -148.38178      218.86559      0.5          
    116000  -841.04952      6.2983238      222.44996      0.5          
    117000  -840.43292      79.354323      222.44361      0.5          
    118000  -920.70449     -347.04631      218.78445      0.5          
    119000  -893.61695     -57.800706      221.38185      0.5          
    120000  -822.80497     -108.16788      223.2584       0.5          
    121000  -966.66863     -195.47436      221.21835      0.5          
    122000  -1027.5132      14.102302      219.92999      0.5          
    123000  -875.18996      25.936035      225.42221      0.5          
    124000  -1005.3133      28.859658      219.73647      0.5          
    125000  -1102.803       44.385707      219.10811      0.5          
    126000  -1133.6162     -228.14565      221.31017      0.5          
    127000  -1167.4458     -190.68766      221.20567      0.5          
    128000  -1131.1678      357.37908      222.22585      0.5          
    129000  -1240.9187      120.47713      216.60224      0.5          
    130000  -1065.4628      159.56343      223.34099      0.5          
    131000  -1021.7287      35.827119      225.47672      0.5          
    132000  -1207.9277     -141.5427       220.02752      0.5          
    133000  -1274.9805      218.39962      219.40624      0.5          
    134000  -1316.756      -2.0259509      215.23673      0.5          
    135000  -1275.974       97.042561      217.33314      0.5          
    136000  -1152.156       168.23502      223.55825      0.5          
    137000  -1205.4991      43.84976       219.95623      0.5          
    138000  -1231.2798      138.45179      221.22705      0.5          
    139000  -1156.2769      98.002903      222.74334      0.5          
    140000  -1023.8869      287.7786       224.83912      0.5          
    141000  -1168.2054      120.76491      217.31188      0.5          
    142000  -1106.5776     -411.98134      219.62901      0.5          
    143000  -1126.6432      270.58146      216.03386      0.5          
    144000  -979.66431      265.54423      221.83688      0.5          
    145000  -1091.3376     -171.83661      217.10945      0.5          
    146000  -1043.872       0.38269548     220.47985      0.5          
    147000  -963.22312     -18.654677      221.97685      0.5          
    148000  -904.68159     -15.696569      223.43336      0.5          
    149000  -795.58337     -94.543709      226.44289      0.5          
    150000  -895.61933     -126.35606      219.78224      0.5          
    151000  -779.26079     -255.12936      223.33224      0.5          
    152000  -887.53108     -112.87743      218.86278      0.5          
    153000  -990.08372     -146.45279      215.63058      0.5          
    154000  -915.87818     -17.284594      218.04746      0.5          
    155000  -940.01313     -204.90636      219.30839      0.5          
    156000  -859.91673      15.163956      219.99432      0.5          
    157000  -846.21404     -100.91626      217.98779      0.5          
    158000  -812.12501      70.86845       221.85972      0.5          
    159000  -923.69007     -145.17458      220.20576      0.5          
    160000  -965.22471     -34.212776      217.82238      0.5          
    161000  -946.96619      56.636828      218.39667      0.5          
    162000  -875.95533     -35.87242       221.89996      0.5          
    163000  -929.37968     -73.778193      220.9807       0.5          
    164000  -915.8065      -221.9311       221.29337      0.5          
    165000  -943.11851     -210.94161      223.95621      0.5          
    166000  -993.40827      112.03504      220.72553      0.5          
    167000  -1048.4239      32.474687      217.72034      0.5          
    168000  -1049.83       -139.1093       221.60981      0.5          
    169000  -941.99173     -94.601313      220.63021      0.5          
    170000  -1039.179       157.39865      221.80676      0.5          
    171000  -1102.4323     -24.70305       218.3698       0.5          
    172000  -1105.5885      9.3457026      221.40144      0.5          
    173000  -1064.376      -193.6664       218.51205      0.5          
    174000  -1110.1669      27.230806      220.37669      0.5          
    175000  -1032.4716      104.68019      222.22381      0.5          
    176000  -1032.5899      71.243564      222.53688      0.5          
    177000  -1113.9633      83.630937      218.95053      0.5          
    178000  -1160.5428      36.686404      219.41982      0.5          
    179000  -1105.1255     -57.203957      219.18119      0.5          
    180000  -1118.3099      131.20607      219.91562      0.5          
    181000  -1046.1513      2.670269       219.16024      0.5          
    182000  -973.68146      7.8714377      218.42037      0.5          
    183000  -1013.8643     -21.872996      219.3419       0.5          
    184000  -986.83683      153.96405      220.2799       0.5          
    185000  -967.57269      68.587305      219.96877      0.5          
    186000  -861.64694      87.911692      223.53572      0.5          
    187000  -954.11475     -434.08677      216.72125      0.5          
    188000  -843.83535     -4.6918312      223.28715      0.5          
    189000  -931.08351      252.43398      217.13398      0.5          
    190000  -929.06575     -312.45831      217.01207      0.5          
    191000  -974.93404     -262.12261      218.73318      0.5          
    192000  -917.82018     -154.27746      219.8562       0.5          
    193000  -829.96484      375.16902      223.46329      0.5          
    194000  -813.61192      359.58706      224.71755      0.5          
    195000  -931.21895     -167.1339       218.92051      0.5          
    196000  -947.9341      -315.56413      220.0718       0.5          
    197000  -939.48205      237.89093      219.70008      0.5          
    198000  -908.11825      116.39572      221.09657      0.5          
    199000  -954.91369     -482.65582      218.86393      0.5          
    200000  -980.55108     -89.3935        219.92493      0.5          
Loop time of 9967.44 on 1 procs for 200000 steps with 7050 atoms

Performance: 0.867 ns/day, 27.687 hours/ns, 20.065 timesteps/s, 141.461 katom-step/s
99.5% CPU use with 1 MPI tasks x 1 OpenMP threads

MPI task timing breakdown:
Section |  min time  |  avg time  |  max time  |%varavg| %total
---------------------------------------------------------------
Pair    | 8635.6     | 8635.6     | 8635.6     |   0.0 | 86.64
Bond    | 36.086     | 36.086     | 36.086     |   0.0 |  0.36
Kspace  | 1139       | 1139       | 1139       |   0.0 | 11.43
Neigh   | 79.896     | 79.896     | 79.896     |   0.0 |  0.80
Comm    | 19.657     | 19.657     | 19.657     |   0.0 |  0.20
Output  | 0.18965    | 0.18965    | 0.18965    |   0.0 |  0.00
Modify  | 53.717     | 53.717     | 53.717     |   0.0 |  0.54
Other   |            | 3.327      |            |       |  0.03

Nlocal:           7050 ave        7050 max        7050 min
Histogram: 1 0 0 0 0 0 0 0 0 0
Nghost:          17182 ave       17182 max       17182 min
Histogram: 1 0 0 0 0 0 0 0 0 0
Neighs:    3.19843e+06 ave 3.19843e+06 max 3.19843e+06 min
Histogram: 1 0 0 0 0 0 0 0 0 0

Total # of neighbors = 3198427
Ave neighs/atom = 453.67759
Ave special neighs/atom = 2
Neighbor list builds = 973
Dangerous builds = 0

unfix           NVT
unfix           COM_DRIFT
unfix           NVE
unfix           CPU_BALANCE
unfix           dens_profile
unfix           1
unfix           2
unfix           3

write_data      ${NAME}_final.data
write_data      CO2_final.data
System init for write_data ...
PPPM initialization ...
  using 12-bit tables for long-range coulomb (src/kspace.cpp:342)
  G vector (1/distance) = 0.20169663
  grid = 24 24 80
  stencil order = 5
  estimated absolute RMS force accuracy = 0.00286774
  estimated relative force accuracy = 8.6361139e-06
  using single precision FFTW3
  3d grid and FFT values/proc = 82646 46080
Generated 1 of 1 mixed pair_coeff terms from arithmetic mixing rule
Last active /omp style is kspace_style pppm/omp
reset_timestep  0

quit
