units		    real
atom_style	    full
boundary        p p p
pair_style      lj/cut/coul/long 14
pair_modify     shift yes mix arithmetic tail no
kspace_style    pppm 1e-5
bond_style      harmonic
angle_style     harmonic
processors      2 2 *

#----------------------------------------------------------------------------#
#                               Variables
#----------------------------------------------------------------------------#

variable  TEMP_INDEX       equal 220
variable  simulationTemp   equal ${TEMP_INDEX}
variable  simulationTemp   equal 220
variable  timestep         equal 0.5
variable  RandomSeed       equal 1000
variable  Seed_L           equal ${RandomSeed}*7
variable  Seed_L           equal 1000*7
variable  Seed_V1          equal ${RandomSeed}*2
variable  Seed_V1          equal 1000*2
variable  Seed_V2          equal ${RandomSeed}*5
variable  Seed_V2          equal 1000*5

variable  nz_bin           equal 100
variable  bin_size         equal 1/${nz_bin}
variable  bin_size         equal 1/100
variable  restartfreq      equal 2000000        # 1 ns
variable  balance_freq     equal 8000000        # 4 ns
variable  thermo_num       equal 1000
variable  Lz               equal lz
variable  TEMPERATURE      equal temp
variable  PRESSURE         equal press
variable  KE               equal ke
variable  PE               equal pe
variable  TOT_ENG          equal etotal
variable  ECOUPLE          equal ecouple
variable  ECONSERVE        equal econserve

variable  Nnvt             equal 2000000     # 1 ns

#----------------------------------------------------------------------------#
#                        Simulation cell creation
#----------------------------------------------------------------------------#

region          box block 0 40 0 40 0 240

create_box      2 box                                       bond/types 1                                angle/types 1                               extra/bond/per/atom 2                       extra/angle/per/atom 1                      extra/special/per/atom 2
Created orthogonal box = (0 0 0) to (40 40 240)
  2 by 2 by 4 MPI processor grid

molecule        co2mol CO2.mol
Read molecule template co2mol:
# CO2 molecule file. TraPPE-Flex model.
  1 molecules
  0 fragments
  3 atoms with max type 2
  2 bonds with max type 1
  1 angles with max type 1
  0 dihedrals with max type 0
  0 impropers with max type 0
print           "Molecule file loaded successfully"
Molecule file loaded successfully

region          liquid  block 0 40 0 40 75 165
region          vapor_1 block 0 40 0 40 0 75
region          vapor_2 block 0 40 0 40 165 240

create_atoms   	0 random 2298 ${Seed_L}  liquid  mol co2mol 3 overlap 2 maxtry 10000
create_atoms   	0 random 2298 7000  liquid  mol co2mol 3 overlap 2 maxtry 10000
Created 6894 atoms
  using lattice units in orthogonal box = (0 0 0) to (40 40 240)
  create_atoms CPU = 0.269 seconds
create_atoms   	0 random 26 ${Seed_V1} vapor_1 mol co2mol 3 overlap 2 maxtry 10000
create_atoms   	0 random 26 2000 vapor_1 mol co2mol 3 overlap 2 maxtry 10000
Created 78 atoms
  using lattice units in orthogonal box = (0 0 0) to (40 40 240)
  create_atoms CPU = 0.005 seconds
create_atoms   	0 random 26 ${Seed_V2} vapor_2 mol co2mol 3 overlap 2 maxtry 10000
create_atoms   	0 random 26 5000 vapor_2 mol co2mol 3 overlap 2 maxtry 10000
Created 78 atoms
  using lattice units in orthogonal box = (0 0 0) to (40 40 240)
  create_atoms CPU = 0.005 seconds

include         trappe_flex.FF
#----------------------------------------------------------------------------#
# FORCEFIELD - TraPPE Flexible model for CO2 (DOI- 10.1021/acs.jced.9b00006)
#----------------------------------------------------------------------------#

pair_coeff      1   1  0.0536545107   2.8         # O=[C]=O
pair_coeff      2   2  0.1569891239   3.05        # [O]=C=O

bond_coeff      1   1028.266  1.16

angle_coeff     1   55.96  180

mass            1   12.010700                     # C
mass            2   15.999400                     # O

set type        1   charge     +0.7000            # C
Setting atom values ...
  2350 settings made for charge
set type        2   charge     -0.3500            # O
Setting atom values ...
  4700 settings made for charge
# read_restart   restart_CO2.2

print           "lz=${Lz}"
lz=240

#----------------------------------------------------------------------------#
#                           GROUPS / NEIGHBOUR-LIST / BALANCE
#----------------------------------------------------------------------------#

group           car  type 1
2350 atoms in group car
group           oxy  type 2
4700 atoms in group oxy

neighbor	    3.0 bin
neigh_modify    every 1 delay 0 check yes
run_style       verlet
balance         0.8 shift xyz 20 1.2 out tmp.balance
Balancing ...
PPPM initialization ...
  using 12-bit tables for long-range coulomb (src/kspace.cpp:342)
  G vector (1/distance) = 0.20169663
  grid = 24 24 80
  stencil order = 5
  estimated absolute RMS force accuracy = 0.00286774
  estimated relative force accuracy = 8.6361139e-06
  using single precision FFTW3
  3d grid and FFT values/proc = 9386 2880
Generated 1 of 1 mixed pair_coeff terms from arithmetic mixing rule
Last active /omp style is kspace_style pppm/omp
Neighbor list info ...
  update: every = 1 steps, delay = 0 steps, check = yes
  max neighbors/atom: 2000, page size: 100000
  master list distance cutoff = 17
  ghost atom cutoff = 17
  binsize = 8.5, bins = 5 5 29
  1 neighbor lists, perpetual/occasional/extra = 1 0 0
  (1) pair lj/cut/coul/long/omp, perpetual
      attributes: half, newton on, omp
      pair build: half/bin/newton/omp
      stencil: half/bin/3d
      bin: standard
 rebalancing time: 0.008 seconds
  iteration count = 13
  initial/final maximal load/proc = 896 533
  initial/final imbalance factor  = 2.0334752 1.2096454
  x cuts: 0 0.46875 1
  y cuts: 0 0.46875 1
  z cuts: 0 0.3984375 0.4921875 0.6015625 1

#----------------------------------------------------------------------------#
#                           CONGUGATE-GRADIENT MINIMIZATION/Initialization
#----------------------------------------------------------------------------#

minimize        1e-6 1e-8 100000 10000000
PPPM initialization ...
  using 12-bit tables for long-range coulomb (src/kspace.cpp:342)
  G vector (1/distance) = 0.20169663
  grid = 24 24 80
  stencil order = 5
  estimated absolute RMS force accuracy = 0.00286774
  estimated relative force accuracy = 8.6361139e-06
  using single precision FFTW3
  3d grid and FFT values/proc = 15200 5408
Generated 1 of 1 mixed pair_coeff terms from arithmetic mixing rule
Last active /omp style is kspace_style pppm/omp
Per MPI rank memory allocation (min/avg/max) = 9.327 | 9.72 | 10.12 Mbytes
   Step          Temp          E_pair         E_mol          TotEng         Press     
         0   0              49336.872      7.9026918e-12  49336.872      43177.231    
      3744   0             -12017.396      22.244772     -11995.151     -269.88515    
Loop time of 59.4548 on 16 procs for 3744 steps with 7050 atoms

99.4% CPU use with 16 MPI tasks x 1 OpenMP threads

Minimization stats:
  Stopping criterion = energy tolerance
  Energy initial, next-to-last, final = 
      49336.8715517685  -11995.1452362836  -11995.1512611562
  Force two-norm initial, final = 12256.268 4.3582724
  Force max component initial, final = 805.65186 0.75147622
  Final line search alpha, max atom move = 0.067089808 0.050416395
  Iterations, force evaluations = 3744 7418

MPI task timing breakdown:
Section |  min time  |  avg time  |  max time  |%varavg| %total
---------------------------------------------------------------
Pair    | 16.177     | 35.86      | 51.982     | 191.7 | 60.32
Bond    | 0.083175   | 0.10999    | 0.1387     |   5.2 |  0.18
Kspace  | 5.4378     | 21.683     | 41.441     | 247.6 | 36.47
Neigh   | 0.35536    | 0.35651    | 0.35851    |   0.2 |  0.60
Comm    | 0.91852    | 1.1274     | 1.2866     |  11.1 |  1.90
Output  | 0          | 0          | 0          |   0.0 |  0.00
Modify  | 0.039668   | 0.056114   | 0.07578    |   5.9 |  0.09
Other   |            | 0.2617     |            |       |  0.44

Nlocal:        440.625 ave         653 max         260 min
Histogram: 3 5 0 0 0 1 0 3 2 2
Nghost:         6790.5 ave        9372 max        4673 min
Histogram: 6 2 0 0 0 0 1 2 3 2
Neighs:         241970 ave      398783 max       72378 min
Histogram: 4 0 1 3 0 0 1 2 2 3

Total # of neighbors = 3871526
Ave neighs/atom = 549.15262
Ave special neighs/atom = 2
Neighbor list builds = 40
Dangerous builds = 0
fix             COM_DRIFT all momentum 1 linear 1 1 1 rescale
velocity        all create ${simulationTemp} ${RandomSeed} mom yes rot yes dist gaussian
velocity        all create 220 ${RandomSeed} mom yes rot yes dist gaussian
velocity        all create 220 1000 mom yes rot yes dist gaussian
velocity        all zero linear
velocity        all zero angular
thermo_style    custom step etotal press temp dt
thermo_modify   flush yes
thermo          ${thermo_num}
thermo          1000
reset_timestep  0
write_data      ${NAME}_init.data
write_data      CO2_init.data
System init for write_data ...
PPPM initialization ...
  using 12-bit tables for long-range coulomb (src/kspace.cpp:342)
  G vector (1/distance) = 0.20169663
  grid = 24 24 80
  stencil order = 5
  estimated absolute RMS force accuracy = 0.00286774
  estimated relative force accuracy = 8.6361139e-06
  using single precision FFTW3
  3d grid and FFT values/proc = 15200 5408
Generated 1 of 1 mixed pair_coeff terms from arithmetic mixing rule
Last active /omp style is kspace_style pppm/omp

#----------------------------------------------------------------------------#
#                           Compute
#----------------------------------------------------------------------------#

compute         layers  all chunk/atom bin/1d z lower ${bin_size} units reduced
compute         layers  all chunk/atom bin/1d z lower 0.01 units reduced
compute         T       all temp
compute         pTensor all pressure T
compute         mom     all momentum

variable        TM      equal mass(all)
variable        vx_com  equal c_mom[1]/v_TM
variable        vy_com  equal c_mom[2]/v_TM
variable        vz_com  equal c_mom[3]/v_TM

#----------------------------------------------------------------------------#
#                           Write Headers to Files
#----------------------------------------------------------------------------#

print "#Step Pxx Pyy Pzz" file pressure_tensor.dat
#Step Pxx Pyy Pzz
print "#Step temp press ke pe etotal ecouple econserve" file Energy.dat
#Step temp press ke pe etotal ecouple econserve
print "#Step px py pz COM_vx COM_vy COM_vz" file Momentum.dat
#Step px py pz COM_vx COM_vy COM_vz

#----------------------------------------------------------------------------#
#                           NVT (Initialization/Production)
#----------------------------------------------------------------------------#

fix             NVE          all    nve
fix             NVT          all    temp/csvr  ${simulationTemp} ${simulationTemp} 100 ${RandomSeed}
fix             NVT          all    temp/csvr  220 ${simulationTemp} 100 ${RandomSeed}
fix             NVT          all    temp/csvr  220 220 100 ${RandomSeed}
fix             NVT          all    temp/csvr  220 220 100 1000
fix             CPU_BALANCE  all    balance    ${balance_freq} 0.8 shift xyz 20 1.2
fix             CPU_BALANCE  all    balance    8000000 0.8 shift xyz 20 1.2
fix		        dens_profile all    ave/chunk  10 100 1000 layers density/mass file massdens_profile.dat
fix             1            all    ave/time   10 100 1000 c_pTensor[1] c_pTensor[2] c_pTensor[3] file pressure_tensor.dat
fix             2            all    ave/time   ${thermo_num} 1 ${thermo_num} v_TEMPERATURE v_PRESSURE v_KE v_PE v_TOT_ENG v_ECOUPLE v_ECONSERVE file Energy.dat
fix             2            all    ave/time   1000 1 ${thermo_num} v_TEMPERATURE v_PRESSURE v_KE v_PE v_TOT_ENG v_ECOUPLE v_ECONSERVE file Energy.dat
fix             2            all    ave/time   1000 1 1000 v_TEMPERATURE v_PRESSURE v_KE v_PE v_TOT_ENG v_ECOUPLE v_ECONSERVE file Energy.dat
fix             3            all    ave/time   ${thermo_num} 1 ${thermo_num} c_mom[1] c_mom[2] c_mom[3] v_vx_com v_vy_com v_vz_com file Momentum.dat
fix             3            all    ave/time   1000 1 ${thermo_num} c_mom[1] c_mom[2] c_mom[3] v_vx_com v_vy_com v_vz_com file Momentum.dat
fix             3            all    ave/time   1000 1 1000 c_mom[1] c_mom[2] c_mom[3] v_vx_com v_vy_com v_vz_com file Momentum.dat

timestep        0.5
restart         ${restartfreq} restart_${NAME}.1 restart_${NAME}.2
restart         2000000 restart_${NAME}.1 restart_${NAME}.2
restart         2000000 restart_CO2.1 restart_${NAME}.2
restart         2000000 restart_CO2.1 restart_CO2.2
run             ${Nnvt}
run             2000000
PPPM initialization ...
  using 12-bit tables for long-range coulomb (src/kspace.cpp:342)
  G vector (1/distance) = 0.20169663
  grid = 24 24 80
  stencil order = 5
  estimated absolute RMS force accuracy = 0.00286774
  estimated relative force accuracy = 8.6361139e-06
  using single precision FFTW3
  3d grid and FFT values/proc = 15200 5408
Generated 1 of 1 mixed pair_coeff terms from arithmetic mixing rule
Last active /omp style is kspace_style pppm/omp
Per MPI rank memory allocation (min/avg/max) = 8.775 | 9.142 | 9.671 Mbytes
   Step         TotEng         Press           Temp            Dt      
         0  -7372.5707      280.39789      220            0.5          
      1000  -3255.5019      1527.2265      221.01852      0.5          
      2000  -2817.598       1341.752       198.46654      0.5          
      3000  -2389.1027     -145.4098       212.68075      0.5          
      4000  -2264.7588      294.20473      226.13347      0.5          
      5000  -2169.3854     -31.322801      225.13248      0.5          
      6000  -1881.2984     -396.90884      219.49998      0.5          
      7000  -1719.9038     -161.59307      210.40171      0.5          
      8000  -1516.836       36.215713      215.03378      0.5          
      9000  -1236.393      -360.41727      219.75517      0.5          
     10000  -989.60149     -370.05569      218.95848      0.5          
     11000  -819.0018      -443.86777      217.47477      0.5          
     12000  -850.81391     -473.62069      218.7721       0.5          
     13000  -642.56537     -192.91462      221.97051      0.5          
     14000  -619.77447     -72.426647      223.35821      0.5          
     15000  -621.21389     -146.87817      223.3549       0.5          
     16000  -670.54674     -229.357        218.45142      0.5          
     17000  -671.76019     -124.31162      219.99817      0.5          
     18000  -809.95709     -30.781426      222.6078       0.5          
     19000  -793.71715     -193.8411       221.14504      0.5          
     20000  -777.39719     -25.631353      219.89671      0.5          
     21000  -955.0211      -163.16674      216.52634      0.5          
     22000  -920.00612     -264.60505      219.26927      0.5          
     23000  -943.23149      47.572388      218.70527      0.5          
     24000  -934.99601      344.42251      216.88565      0.5          
     25000  -847.70188     -120.08324      219.22476      0.5          
     26000  -861.15478     -31.253509      221.00231      0.5          
     27000  -847.89237     -81.308468      219.56248      0.5          
     28000  -913.57004      36.533831      219.85034      0.5          
     29000  -814.70247     -177.88212      217.06605      0.5          
     30000  -905.46731     -196.53812      218.0251       0.5          
     31000  -739.95496     -29.867784      223.32646      0.5          
     32000  -916.96221      48.764578      217.08632      0.5          
     33000  -982.51762     -6.8676914      216.74517      0.5          
     34000  -822.64572      190.37338      222.66951      0.5          
     35000  -904.90393     -150.12759      217.28081      0.5          
     36000  -987.28591     -220.01165      217.84152      0.5          
     37000  -971.24327      326.42623      216.09897      0.5          
     38000  -875.9911       50.546706      221.3938       0.5          
     39000  -896.57878     -272.96326      219.82644      0.5          
     40000  -956.79331      259.6973       220.81189      0.5          
     41000  -890.25924      179.88234      221.08517      0.5          
     42000  -877.38618      64.251876      221.44629      0.5          
     43000  -749.07336      207.04739      225.79043      0.5          
     44000  -856.2206       70.933153      218.68329      0.5          
     45000  -822.85456     -228.8129       221.30405      0.5          
     46000  -756.96503      129.70121      220.34793      0.5          
     47000  -745.1339       99.400316      219.80642      0.5          
     48000  -798.20306     -228.84973      223.68967      0.5          
     49000  -866.62446     -102.83817      217.87056      0.5          
     50000  -799.79231      97.266116      221.84357      0.5          
     51000  -935.19959     -6.5650977      221.00016      0.5          
     52000  -897.74777     -146.46536      217.65733      0.5          
     53000  -910.3164       189.15564      218.90052      0.5          
     54000  -817.78215      5.7997871      221.03703      0.5          
     55000  -979.33439     -119.64448      214.50537      0.5          
     56000  -912.51596      193.58121      218.05459      0.5          
     57000  -780.82417     -11.110826      221.49091      0.5          
     58000  -755.22296      78.865872      220.97238      0.5          
     59000  -872.79883     -12.600078      219.00701      0.5          
     60000  -940.14987     -324.92858      216.74603      0.5          
     61000  -887.85896      65.797247      221.21848      0.5          
     62000  -904.59156      234.4993       217.65213      0.5          
     63000  -996.04937     -166.33411      220.20292      0.5          
     64000  -759.42241      116.0088       224.02127      0.5          
     65000  -905.03667      21.02445       220.0233       0.5          
     66000  -980.22187      87.433318      218.91325      0.5          
     67000  -997.80236      96.83619       216.93858      0.5          
     68000  -976.88526     -42.439956      216.8842       0.5          
     69000  -838.94185     -252.9492       221.34128      0.5          
     70000  -747.05336     -326.78795      220.37154      0.5          
     71000  -769.37623      145.01991      225.81466      0.5          
     72000  -841.10804      88.245611      216.34873      0.5          
     73000  -845.56818     -3.6489577      215.67686      0.5          
     74000  -736.23599      175.08081      224.21288      0.5          
     75000  -883.47132      4.4792371      218.06401      0.5          
     76000  -919.40232     -109.16981      216.71386      0.5          
     77000  -893.63743     -282.20262      216.7884       0.5          
     78000  -864.88805      73.097987      219.68913      0.5          
     79000  -841.5659      -76.705745      217.76636      0.5          
     80000  -833.59488      74.980243      218.89055      0.5          
     81000  -858.00697     -173.44714      219.43227      0.5          
     82000  -791.10801     -184.00376      221.89876      0.5          
     83000  -862.74196     -20.86783       218.12204      0.5          
     84000  -818.29141     -24.014571      217.10456      0.5          
     85000  -792.82108     -12.863323      218.94989      0.5          
     86000  -869.47278     -66.581959      217.83749      0.5          
     87000  -735.22092      31.172361      223.2936       0.5          
     88000  -725.98735     -142.35244      221.71066      0.5          
     89000  -867.49792     -355.09176      220.94601      0.5          
     90000  -873.63597      70.830691      218.10893      0.5          
     91000  -868.93067     -39.081834      220.51076      0.5          
     92000  -758.09056     -176.33864      221.25998      0.5          
     93000  -788.09653     -92.999945      220.5378       0.5          
     94000  -777.23203     -368.68211      218.59346      0.5          
     95000  -775.87464     -95.115646      218.56299      0.5          
     96000  -866.73466      53.780972      218.16423      0.5          
     97000  -723.26904      33.025213      221.28305      0.5          
     98000  -708.85875     -146.6151       220.39869      0.5          
     99000  -831.93886      36.509006      220.83945      0.5          
    100000  -904.49447     -26.094704      216.46011      0.5          
    101000  -814.37243      103.66016      223.90122      0.5          
    102000  -878.11816     -58.948781      220.60586      0.5          
    103000  -725.67765      13.964667      223.49261      0.5          
    104000  -769.3522       138.25458      220.70102      0.5          
    105000  -802.03572      149.48949      219.70801      0.5          
    106000  -893.11757     -10.718294      218.58368      0.5          
    107000  -887.17415      69.827842      217.66353      0.5          
    108000  -802.83203      225.32233      222.47199      0.5          
    109000  -851.7509      -90.548326      219.56403      0.5          
    110000  -796.30902     -30.594822      219.42018      0.5          
    111000  -767.2898      -153.03391      220.06664      0.5          
    112000  -821.57814      25.187783      219.70916      0.5          
    113000  -898.7566       111.83679      217.59662      0.5          
    114000  -649.07533      117.99632      224.72471      0.5          
    115000  -731.76834     -271.31417      218.61668      0.5          
    116000  -717.82783     -88.177056      220.28768      0.5          
    117000  -685.50886      359.55699      224.67217      0.5          
    118000  -804.88444     -53.705543      219.59015      0.5          
    119000  -805.41854      76.822433      220.95614      0.5          
    120000  -652.88846      56.371379      223.95004      0.5          
    121000  -744.69719      138.37731      221.27987      0.5          
    122000  -802.58633      123.46458      218.46723      0.5          
    123000  -647.92934      144.31685      225.95422      0.5          
    124000  -749.84183      60.997986      219.41125      0.5          
    125000  -735.77847      25.256726      218.79281      0.5          
    126000  -810.42309      13.995383      219.29375      0.5          
    127000  -812.22003     -88.58296       220.27673      0.5          
    128000  -704.63235     -229.04352      220.4853       0.5          
    129000  -776.21182     -3.6791822      218.5154       0.5          
    130000  -631.35251     -8.8126014      222.06153      0.5          
    131000  -629.31983      294.52577      224.94866      0.5          
    132000  -755.3527      -167.87189      220.58063      0.5          
    133000  -787.36264     -191.56166      217.90785      0.5          
    134000  -837.18041     -160.29485      217.02264      0.5          
    135000  -711.55668     -159.00544      216.01001      0.5          
    136000  -578.18177      91.293983      223.54644      0.5          
    137000  -645.09069      42.901624      220.38623      0.5          
    138000  -676.01726     -181.67676      221.33391      0.5          
    139000  -643.00827     -152.82394      223.66281      0.5          
    140000  -575.30357     -78.576419      221.96027      0.5          
    141000  -722.49588     -275.96354      219.01362      0.5          
    142000  -722.10584     -172.59835      221.19467      0.5          
    143000  -775.31228      128.22844      217.54594      0.5          
    144000  -638.76846      87.266776      222.10852      0.5          
    145000  -743.18199     -207.15271      218.15078      0.5          
    146000  -760.13022     -123.89292      219.69869      0.5          
    147000  -675.44335     -89.543401      220.68719      0.5          
    148000  -592.96011     -409.73077      223.83263      0.5          
    149000  -539.70535     -147.65852      226.24415      0.5          
    150000  -683.58555     -26.011838      222.27844      0.5          
    151000  -606.25891     -170.64814      222.88653      0.5          
    152000  -739.52228      7.1427158      219.20148      0.5          
    153000  -816.55565      89.414125      217.07422      0.5          
    154000  -793.72587     -162.05226      217.70214      0.5          
    155000  -809.18013      23.982928      219.10915      0.5          
    156000  -802.97168      227.0196       219.2003       0.5          
    157000  -847.65084     -122.45682      218.29346      0.5          
    158000  -721.98873      3.6342495      221.36505      0.5          
    159000  -794.94007      109.66672      219.42896      0.5          
    160000  -821.97406     -47.741435      218.33093      0.5          
    161000  -770.27577     -25.084794      216.76811      0.5          
    162000  -651.11263      48.449574      221.82351      0.5          
    163000  -628.67594     -206.66088      221.29136      0.5          
    164000  -617.98242     -150.81684      223.2888       0.5          
    165000  -644.98321      103.37561      220.3927       0.5          
    166000  -698.54385      140.65159      221.49199      0.5          
    167000  -792.04606     -192.22534      218.37434      0.5          
    168000  -758.6751      -33.03555       219.04814      0.5          
    169000  -593.92348     -90.595192      222.77322      0.5          
    170000  -697.53956     -198.61749      221.24641      0.5          
    171000  -737.12205      76.049444      220.46513      0.5          
    172000  -795.67869      35.010586      223.16248      0.5          
    173000  -803.13618     -83.869648      219.75686      0.5          
    174000  -741.67121      50.519959      218.53903      0.5          
    175000  -720.88324     -198.81793      223.69986      0.5          
    176000  -662.39161     -37.140145      221.2741       0.5          
    177000  -705.83003      174.38646      218.92659      0.5          
    178000  -767.5632      -58.011441      219.69468      0.5          
    179000  -703.85396     -302.49048      219.72759      0.5          
    180000  -788.48886      209.65053      218.60897      0.5          
    181000  -727.72054      18.207022      218.43194      0.5          
    182000  -734.54962     -46.263847      221.69755      0.5          
    183000  -773.11524     -84.927002      218.12839      0.5          
    184000  -698.78674     -80.175448      219.99094      0.5          
    185000  -656.17916     -1.8233006      218.58285      0.5          
    186000  -578.10918     -58.196172      221.36161      0.5          
    187000  -703.19169     -87.747053      218.95696      0.5          
    188000  -613.51343      16.957873      222.37597      0.5          
    189000  -762.03365      45.915537      219.15602      0.5          
    190000  -777.49204     -126.65406      214.17851      0.5          
    191000  -773.55669      95.311761      217.04669      0.5          
    192000  -712.19363     -221.64507      218.8248       0.5          
    193000  -661.94744      98.347955      223.10551      0.5          
    194000  -584.45877      238.84159      223.53204      0.5          
    195000  -787.32256      3.8079126      218.00622      0.5          
    196000  -707.57658      153.20479      218.84227      0.5          
    197000  -746.39557      6.2316813      219.62804      0.5          
    198000  -690.46488     -337.45235      221.30563      0.5          
    199000  -725.61712      88.172393      218.38726      0.5          
    200000  -715.71425      115.73644      222.13635      0.5          
    201000  -782.04037     -238.11792      220.03037      0.5          
    202000  -754.06952     -41.867117      220.86913      0.5          
    203000  -760.72032      272.28008      217.89661      0.5          
    204000  -793.99039     -43.936865      218.2965       0.5          
    205000  -723.50795     -338.58657      222.05061      0.5          
    206000  -680.69131      76.567503      223.22405      0.5          
    207000  -851.36813      64.452669      220.29492      0.5          
    208000  -849.20634     -359.46776      219.63284      0.5          
    209000  -919.5053      -133.15352      219.23354      0.5          
    210000  -783.83289      117.19503      219.88215      0.5          
    211000  -830.18592      41.475973      218.07265      0.5          
    212000  -697.24553     -135.56845      221.75956      0.5          
    213000  -693.41999     -69.333508      220.9637       0.5          
    214000  -849.16672      83.172363      216.93166      0.5          
    215000  -709.63554     -61.320667      218.99511      0.5          
    216000  -734.71135     -237.53706      219.77882      0.5          
    217000  -676.05475      91.723696      221.99403      0.5          
    218000  -675.32008      423.95095      222.0207       0.5          
    219000  -843.84884     -43.106763      215.09367      0.5          
    220000  -744.7173      -264.77897      218.24288      0.5          
    221000  -704.06679     -118.30709      221.42875      0.5          
    222000  -750.35337      117.08161      218.7283       0.5          
    223000  -658.02698     -47.290069      221.94732      0.5          
    224000  -691.49999      92.757439      217.93868      0.5          
    225000  -655.00906     -30.332232      220.44204      0.5          
    226000  -674.04819     -93.176973      220.84023      0.5          
    227000  -626.05361     -50.596101      223.60662      0.5          
    228000  -818.12727      388.75856      216.09974      0.5          
    229000  -795.15364     -328.52866      221.09404      0.5          
    230000  -762.48091      102.44235      220.41212      0.5          
    231000  -750.16905      310.37526      221.02639      0.5          
    232000  -724.70628     -152.5075       219.54726      0.5          
    233000  -751.90516     -317.60786      220.31569      0.5          
    234000  -792.48333     -4.3633803      217.79573      0.5          
    235000  -747.54332      137.95018      219.90155      0.5          
    236000  -731.10226      155.95786      221.6004       0.5          
    237000  -812.83069      265.45354      218.16899      0.5          
    238000  -693.62992      145.61245      218.58098      0.5          
    239000  -692.08524      159.12771      220.58154      0.5          
    240000  -619.681       -24.472001      224.28124      0.5          
    241000  -590.4441      -96.012475      222.42119      0.5          
    242000  -677.00797      278.62656      218.02629      0.5          
    243000  -603.55737     -12.423866      220.29003      0.5          
    244000  -561.66774     -282.28895      222.62311      0.5          
    245000  -554.68242     -234.68527      225.27634      0.5          
    246000  -695.4294      -20.778152      221.32399      0.5          
    247000  -657.54955      170.30522      219.51322      0.5          
    248000  -657.51079     -23.693128      217.56015      0.5          
    249000  -619.89432     -100.5506       219.7831       0.5          
    250000  -605.55866     -121.75284      222.05471      0.5          
    251000  -680.41511     -24.990563      217.04432      0.5          
    252000  -703.65181     -174.41832      217.24328      0.5          
    253000  -584.75905     -192.73124      217.86549      0.5          
    254000  -591.78596      322.94365      222.18749      0.5          
    255000  -686.56097      167.07966      217.23333      0.5          
    256000  -627.32735     -230.87263      220.98017      0.5          
    257000  -546.52226     -56.421884      222.96269      0.5          
    258000  -613.40518     -35.951433      219.28217      0.5          
    259000  -606.86366      32.729863      220.67946      0.5          
    260000  -623.65104     -41.648474      220.6869       0.5          
    261000  -631.77802      76.299347      218.33288      0.5          
    262000  -597.78531     -11.114778      221.44463      0.5          
    263000  -541.00829     -18.040147      221.4923       0.5          
    264000  -504.72694     -178.19921      223.59792      0.5          
    265000  -586.4003       3.5437346      222.21433      0.5          
    266000  -679.82611      160.94623      216.35116      0.5          
    267000  -644.55664      19.417956      219.6709       0.5          
    268000  -572.06461     -74.454871      221.9638       0.5          
    269000  -568.39981     -74.619114      222.79773      0.5          
    270000  -616.52486     -48.545689      222.78677      0.5          
    271000  -535.62005      31.605812      225.55852      0.5          
    272000  -700.80959      17.573541      217.23273      0.5          
    273000  -756.09032      37.07777       219.00151      0.5          
    274000  -746.3909       150.50875      219.07168      0.5          
    275000  -684.95142      15.544357      222.05902      0.5          
    276000  -762.09741     -52.93332       221.63886      0.5          
    277000  -609.87284     -135.46026      222.76477      0.5          
    278000  -720.86169     -33.603403      220.19508      0.5          
    279000  -706.50943      118.73005      222.92563      0.5          
    280000  -810.45015     -24.517706      219.09532      0.5          
    281000  -651.44266     -14.918668      219.92462      0.5          
    282000  -754.76281      263.70064      216.76782      0.5          
    283000  -567.46884     -56.976304      221.2104       0.5          
    284000  -652.99254     -74.397431      219.04241      0.5          
    285000  -542.73018      332.58076      223.27988      0.5          
    286000  -739.27969     -22.417651      217.81051      0.5          
    287000  -555.02206      78.006232      223.57227      0.5          
    288000  -603.64114     -43.561477      222.80897      0.5          
    289000  -672.92775     -178.11355      221.09194      0.5          
    290000  -763.22474      138.9492       217.45578      0.5          
    291000  -642.31095      118.8258       220.35014      0.5          
    292000  -668.55706      43.453005      220.23141      0.5          
    293000  -688.03993     -236.18603      220.4672       0.5          
    294000  -830.61582      41.038437      216.88567      0.5          
    295000  -678.57871      2.8366282      217.25683      0.5          
    296000  -728.40281     -232.63037      219.4765       0.5          
    297000  -816.42787     -180.86612      215.33045      0.5          
    298000  -755.90276     -107.96623      218.94313      0.5          
    299000  -771.05436     -66.331032      220.30413      0.5          
    300000  -593.08502      121.11471      223.61335      0.5          
    301000  -723.44709     -195.82855      218.08533      0.5          
    302000  -647.52397      106.80099      221.04124      0.5          
    303000  -687.56566      51.397449      219.42768      0.5          
    304000  -670.72663     -227.431        218.6376       0.5          
    305000  -634.61007      87.066074      219.1482       0.5          
    306000  -661.48745      230.75183      218.34272      0.5          
    307000  -662.93592     -278.0128       217.39617      0.5          
    308000  -731.41906      141.43722      219.12762      0.5          
    309000  -656.63938      19.128796      218.02898      0.5          
    310000  -608.02592      13.769074      220.37716      0.5          
    311000  -684.52818      118.37729      218.21937      0.5          
    312000  -609.00005     -30.976799      219.4377       0.5          
    313000  -631.9615      -42.032907      220.00539      0.5          
    314000  -662.88378      99.906048      221.7867       0.5          
    315000  -500.61779     -130.13627      223.29837      0.5          
    316000  -587.57111     -75.791198      221.31572      0.5          
    317000  -546.35176      176.61714      224.5939       0.5          
    318000  -652.49873      56.399548      220.42525      0.5          
    319000  -623.25088     -164.76475      220.95676      0.5          
    320000  -607.49906      34.586064      221.59966      0.5          
    321000  -705.43208      91.999601      218.75564      0.5          
    322000  -669.56018      123.23264      220.33703      0.5          
    323000  -712.78491      184.03255      218.97123      0.5          
    324000  -613.67434      92.461388      221.95919      0.5          
    325000  -691.03704     -116.12034      217.82988      0.5          
    326000  -730.73393     -268.29861      217.29418      0.5          
    327000  -684.53943     -102.67414      218.51776      0.5          
    328000  -600.61631      86.200914      222.15375      0.5          
    329000  -664.03289     -384.2682       220.68993      0.5          
    330000  -677.39105     -178.83488      218.03294      0.5          
    331000  -587.05148      53.323724      222.61028      0.5          
    332000  -763.56575     -135.89091      219.08196      0.5          
    333000  -713.5781      -183.53971      217.97402      0.5          
    334000  -692.23828     -153.52702      218.23638      0.5          
    335000  -649.04329      166.13869      219.18279      0.5          
    336000  -573.42964      12.780523      222.32383      0.5          
    337000  -661.68812     -369.58506      221.78911      0.5          
    338000  -729.36698      190.1359       217.38058      0.5          
    339000  -495.07747      183.74585      222.50353      0.5          
    340000  -573.98488     -73.712876      220.93786      0.5          
    341000  -622.26295     -73.787936      220.34224      0.5          
    342000  -694.42515      102.15386      218.64666      0.5          
    343000  -683.62911      132.3005       218.42323      0.5          
    344000  -746.61598     -0.92806936     219.00295      0.5          
    345000  -599.86979     -319.56422      220.10536      0.5          
    346000  -568.00609      35.593196      223.79059      0.5          
    347000  -659.13312      80.199906      217.08719      0.5          
    348000  -682.99073     -196.15898      217.2481       0.5          
    349000  -820.14871      205.95089      215.09206      0.5          
    350000  -748.20463      50.014037      221.08654      0.5          
    351000  -780.7436      -26.113928      216.12158      0.5          
    352000  -823.91966      13.513055      217.42108      0.5          
    353000  -701.71913     -10.42111       221.90356      0.5          
    354000  -537.08706     -20.958246      223.84973      0.5          
    355000  -590.02145     -4.7992884      221.9218       0.5          
    356000  -613.80902      287.84786      221.67832      0.5          
    357000  -586.93714     -108.63082      220.20856      0.5          
    358000  -680.17102     -198.90111      221.09278      0.5          
    359000  -631.29235     -31.771169      221.41806      0.5          
    360000  -595.12863     -150.59199      219.13284      0.5          
    361000  -651.63166      160.13398      218.26777      0.5          
    362000  -587.6453      -10.295916      223.02081      0.5          
    363000  -638.842       -161.67343      222.6483       0.5          
    364000  -630.74654     -147.60108      223.05987      0.5          
    365000  -686.8111      -32.853345      219.69099      0.5          
    366000  -727.81026      114.65486      220.25929      0.5          
    367000  -795.49808      104.03044      218.74355      0.5          
    368000  -771.67452     -162.71048      219.23512      0.5          
    369000  -662.43133     -23.619324      217.3696       0.5          
    370000  -667.74381      260.43476      221.70225      0.5          
    371000  -585.23527      47.907188      223.25425      0.5          
    372000  -724.1846      -149.32108      218.55302      0.5          
    373000  -629.76305     -55.62859       218.18238      0.5          
    374000  -638.40155      26.310531      218.63551      0.5          
    375000  -543.36909      6.992432       221.53742      0.5          
    376000  -640.58487     -53.737453      221.15499      0.5          
    377000  -642.98803      110.06658      219.49429      0.5          
    378000  -674.72085     -66.512736      220.47244      0.5          
    379000  -627.75568      152.06165      219.6703       0.5          
    380000  -617.38286     -283.15176      220.24702      0.5          
    381000  -514.154        172.41552      222.15589      0.5          
    382000  -705.75383      57.393819      219.79175      0.5          
    383000  -629.17752     -70.997436      219.89651      0.5          
    384000  -600.23931      23.974355      221.08156      0.5          
    385000  -684.36255     -74.088149      217.23404      0.5          
    386000  -613.373        41.492901      221.49395      0.5          
    387000  -575.08374      127.32719      219.46183      0.5          
    388000  -628.28446     -217.46018      219.06172      0.5          
    389000  -714.47489      107.58749      220.42072      0.5          
    390000  -698.39723      189.80229      218.23215      0.5          
    391000  -569.4548      -243.52027      221.93114      0.5          
    392000  -666.43301      98.870125      219.63041      0.5          
    393000  -568.92704     -93.479785      222.58402      0.5          
    394000  -664.20344     -183.03595      220.36369      0.5          
    395000  -508.4458       14.724491      223.71325      0.5          
    396000  -671.10304     -8.2433457      219.7828       0.5          
    397000  -539.39312      42.935204      223.39692      0.5          
    398000  -726.21822     -122.82121      218.44399      0.5          
    399000  -675.14306     -175.22618      218.40241      0.5          
    400000  -517.1856      -182.75091      226.45914      0.5          
    401000  -583.24849      98.337826      217.03751      0.5          
    402000  -668.58782      152.91323      216.97827      0.5          
    403000  -666.2506       174.01969      218.91217      0.5          
    404000  -685.55192      89.72055       219.09985      0.5          
    405000  -686.40799      205.40657      221.1188       0.5          
    406000  -708.88223      209.85488      217.29755      0.5          
    407000  -668.51045     -61.97553       219.80129      0.5          
    408000  -616.276       -229.72475      219.35289      0.5          
    409000  -694.86176     -193.20952      220.12764      0.5          
    410000  -711.59799      177.11221      219.8453       0.5          
    411000  -730.44389      18.756667      220.32007      0.5          
    412000  -566.1556       16.619185      221.1956       0.5          
    413000  -595.65671      48.987828      223.00501      0.5          
    414000  -593.84757     -121.42762      220.04017      0.5          
    415000  -742.38636     -200.11266      214.98276      0.5          
    416000  -712.20241      75.971585      216.8653       0.5          
    417000  -657.13045      367.72822      220.1959       0.5          
    418000  -659.04587      21.54954       222.10372      0.5          
    419000  -637.31366     -354.25492      220.24111      0.5          
    420000  -630.82437     -178.87891      221.68694      0.5          
    421000  -687.91717      55.760103      219.87191      0.5          
    422000  -652.76334      0.11880008     218.07444      0.5          
    423000  -605.34292     -159.39675      221.85675      0.5          
    424000  -613.31055      131.14824      221.15648      0.5          
    425000  -587.20654      164.74382      223.83917      0.5          
    426000  -664.1901       219.25126      218.72877      0.5          
    427000  -659.72499     -293.30852      219.15469      0.5          
    428000  -762.46626     -291.91751      217.7846       0.5          
    429000  -605.75016      64.515257      222.34444      0.5          
    430000  -620.13132      443.84583      223.246        0.5          
    431000  -640.18442     -13.643822      222.24732      0.5          
    432000  -719.04825     -58.729874      218.67867      0.5          
    433000  -674.17158      221.46988      221.8473       0.5          
    434000  -769.99244      62.83003       218.33346      0.5          
    435000  -713.76728      234.20069      218.7398       0.5          
    436000  -689.38448      44.7079        221.18879      0.5          
    437000  -689.89629      1.2603496      220.68297      0.5          
    438000  -659.4014       169.43462      219.2622       0.5          
    439000  -627.24981      167.39362      218.25315      0.5          
    440000  -676.57114     -97.647286      218.94863      0.5          
    441000  -618.58546     -146.68914      222.32171      0.5          
    442000  -505.49892     -214.70406      222.77546      0.5          
    443000  -589.63459      341.29255      221.05169      0.5          
    444000  -516.31128      189.00011      221.86711      0.5          
    445000  -691.92713     -106.44726      220.31071      0.5          
    446000  -668.04092     -205.83267      218.63829      0.5          
    447000  -584.38691     -4.4092314      221.50039      0.5          
    448000  -730.88859      50.468313      217.47755      0.5          
    449000  -722.12384     -98.339458      217.34734      0.5          
    450000  -741.44856     -66.996791      218.36628      0.5          
    451000  -774.95004     -33.47495       217.11807      0.5          
    452000  -592.2905       19.991208      223.45628      0.5          
    453000  -566.46446     -190.09745      222.30979      0.5          
    454000  -674.94661      216.84282      219.88087      0.5          
    455000  -633.5028      -9.5321241      219.62993      0.5          
    456000  -627.0221      -340.90262      220.88504      0.5          
    457000  -623.74786      64.410317      221.13635      0.5          
    458000  -615.56272      19.814865      221.09936      0.5          
    459000  -734.60198     -273.96249      219.73196      0.5          
    460000  -695.30891     -20.270338      218.23452      0.5          
    461000  -746.56771      257.13868      220.11295      0.5          
    462000  -774.5938       86.563742      219.04074      0.5          
    463000  -635.99746      11.240828      222.95875      0.5          
    464000  -720.3859       70.920573      220.32093      0.5          
    465000  -655.67878      292.88241      222.11866      0.5          
    466000  -691.529        128.49519      219.13246      0.5          
    467000  -625.1614      -141.27875      216.94279      0.5          
    468000  -666.14132     -102.07399      220.14923      0.5          
    469000  -611.94841     -8.2232915      221.38918      0.5          
    470000  -550.06329     -189.35527      219.49352      0.5          
    471000  -529.18689     -285.40453      221.31302      0.5          
    472000  -639.39766      165.18416      218.57419      0.5          
    473000  -686.80919     -24.19732       217.01207      0.5          
    474000  -533.55426     -43.7664        223.17699      0.5          
    475000  -604.39502     -33.30099       219.21358      0.5          
    476000  -629.49704      66.648726      221.07916      0.5          
    477000  -680.73066     -35.36012       221.68742      0.5          
    478000  -638.76263      251.0827       221.23942      0.5          
    479000  -674.11925     -158.79282      218.88963      0.5          
    480000  -624.47014     -293.3695       219.68431      0.5          
    481000  -724.72191      97.246224      219.40025      0.5          
    482000  -579.664        173.52187      219.50136      0.5          
    483000  -649.37429     -15.331394      220.14368      0.5          
    484000  -650.58062     -246.03366      220.40984      0.5          
    485000  -674.591        143.43651      220.5986       0.5          
    486000  -578.60811     -46.049308      221.82466      0.5          
    487000  -588.47397     -44.773873      219.79144      0.5          
    488000  -599.93073     -54.820904      221.80376      0.5          
    489000  -707.93163      174.28409      217.17821      0.5          
    490000  -744.95057      52.131787      212.44443      0.5          
    491000  -651.20562     -118.60335      216.13961      0.5          
    492000  -607.47788     -19.461954      217.91027      0.5          
    493000  -604.38695      102.27231      220.83501      0.5          
    494000  -564.62636     -152.02767      220.05786      0.5          
    495000  -718.08767      44.163515      215.23896      0.5          
    496000  -670.13497      8.732293       219.88332      0.5          
    497000  -612.37375      138.58178      220.08928      0.5          
    498000  -581.70443      55.333546      221.2095       0.5          
    499000  -529.88682     -160.27138      223.45286      0.5          
    500000  -625.37042      171.2293       218.72858      0.5          
    501000  -702.22241      202.0779       219.49519      0.5          
    502000  -723.86502     -32.405631      220.86108      0.5          
    503000  -634.17165      186.4479       222.26188      0.5          
    504000  -730.93166     -103.55881      219.09205      0.5          
    505000  -626.12913     -82.865082      220.95492      0.5          
    506000  -521.50997      216.14511      222.33192      0.5          
    507000  -574.68592      278.10464      218.8734       0.5          
    508000  -556.17258      29.604925      220.07088      0.5          
    509000  -608.03973     -391.28368      217.11169      0.5          
    510000  -778.99409     -172.32174      214.82024      0.5          
    511000  -685.10813      234.69227      218.02176      0.5          
    512000  -592.90546     -24.218172      221.70093      0.5          
    513000  -581.42299     -91.767905      221.30181      0.5          
    514000  -753.39073     -29.767126      216.19229      0.5          
    515000  -683.85741      172.56985      219.98817      0.5          
    516000  -713.32865      288.73706      217.30748      0.5          
    517000  -678.73304     -162.87731      219.53787      0.5          
    518000  -736.86703     -186.56077      218.64666      0.5          
    519000  -706.54827      21.045128      219.14972      0.5          
    520000  -792.07384     -77.287323      217.02573      0.5          
    521000  -591.21763      240.06547      223.90023      0.5          
    522000  -668.52132     -62.198294      219.87409      0.5          
    523000  -625.22327     -100.65375      223.11515      0.5          
    524000  -757.40364     -116.24877      215.34124      0.5          
    525000  -617.20439      76.102537      219.38832      0.5          
    526000  -600.7638       318.42784      218.64711      0.5          
    527000  -518.50078     -1.360066       221.86937      0.5          
    528000  -620.68873     -207.11662      220.32901      0.5          
    529000  -682.14704     -110.27466      218.13791      0.5          
    530000  -666.84032      245.63902      219.80798      0.5          
    531000  -670.5058      -90.647402      219.09497      0.5          
    532000  -647.21689     -80.6278        219.9283       0.5          
    533000  -587.04558     -141.55771      224.28398      0.5          
    534000  -658.95871      90.529132      220.96713      0.5          
    535000  -659.79535      174.40085      220.86492      0.5          
    536000  -697.34994      179.8498       219.62256      0.5          
    537000  -617.54652      48.52747       223.43332      0.5          
    538000  -518.90201     -239.60557      223.99223      0.5          
    539000  -583.66607      92.047485      221.29609      0.5          
    540000  -586.7371       66.728883      221.76735      0.5          
    541000  -598.538       -4.4536322      219.32491      0.5          
    542000  -588.95118     -45.70854       219.76539      0.5          
    543000  -479.60282      60.596494      225.79596      0.5          
    544000  -614.90745      1.9930687      218.56636      0.5          
    545000  -479.10173      111.61454      224.22981      0.5          
    546000  -504.07087      143.14178      220.72409      0.5          
    547000  -570.025       -62.590734      221.16026      0.5          
    548000  -647.80902     -134.30184      217.05114      0.5          
    549000  -571.7666      -12.453862      221.336        0.5          
    550000  -633.30295     -159.46037      220.82446      0.5          
    551000  -691.58522     -273.42349      218.87358      0.5          
    552000  -551.90289      175.46316      220.8403       0.5          
    553000  -520.56789      50.033842      221.44672      0.5          
    554000  -520.86809     -440.97518      225.76272      0.5          
    555000  -560.9098      -78.421148      220.69014      0.5          
    556000  -660.64835      183.83088      217.90281      0.5          
    557000  -681.04971     -261.67445      218.68263      0.5          
    558000  -590.30937      266.58362      219.49015      0.5          
    559000  -623.18931      101.98038      221.10151      0.5          
    560000  -675.26961     -365.37486      219.48979      0.5          
    561000  -593.39567     -62.958814      222.14389      0.5          
    562000  -589.87602      321.38796      220.58158      0.5          
    563000  -566.50128     -113.09851      221.02801      0.5          
    564000  -592.82142      20.088756      221.29274      0.5          
    565000  -541.04492      159.318        222.28833      0.5          
    566000  -461.43978     -279.33336      223.38362      0.5          
    567000  -612.72505     -151.62917      216.34991      0.5          
    568000  -527.30238      333.87134      220.71819      0.5          
    569000  -551.49284     -148.75636      225.93397      0.5          
    570000  -539.87345     -93.744157      220.19285      0.5          
    571000  -570.47753      184.18126      217.60485      0.5          
    572000  -602.02381      128.19337      222.45609      0.5          
    573000  -560.12536     -320.3283       224.37126      0.5          
    574000  -558.31573     -39.64572       222.43955      0.5          
    575000  -600.24847      42.282329      221.73736      0.5          
    576000  -584.43668     -6.6528275      219.81308      0.5          
    577000  -596.12001      19.305398      219.89064      0.5          
    578000  -576.81726     -259.13126      221.02051      0.5          
    579000  -646.26966     -15.614181      218.22322      0.5          
    580000  -725.3251      -94.273728      218.6737       0.5          
    581000  -629.4697       98.106223      220.24649      0.5          
    582000  -655.74591     -18.453191      220.13193      0.5          
    583000  -652.06663     -26.15324       220.88464      0.5          
    584000  -685.26265     -19.82287       216.94932      0.5          
    585000  -574.5525       122.78789      221.43314      0.5          
    586000  -704.63183      56.778883      217.34555      0.5          
    587000  -632.96953     -7.7069189      219.49813      0.5          
    588000  -728.13362      164.4512       219.89869      0.5          
    589000  -610.54352     -135.47954      219.15897      0.5          
    590000  -727.53248     -209.27022      217.50336      0.5          
    591000  -617.52178     -36.26303       221.4278       0.5          
    592000  -626.98833      195.09486      222.58982      0.5          
    593000  -558.97439     -152.08637      220.90369      0.5          
    594000  -603.37699      120.10302      219.45014      0.5          
    595000  -463.03099      64.634156      220.86746      0.5          
    596000  -492.37268     -90.277789      219.88387      0.5          
    597000  -590.33938     -121.85314      220.00007      0.5          
    598000  -614.68        -68.682997      220.25257      0.5          
    599000  -459.24749     -91.435607      220.98009      0.5          
    600000  -589.02016      57.528214      221.40219      0.5          
    601000  -611.81651      215.33363      217.19667      0.5          
    602000  -567.4683       76.823761      221.57256      0.5          
    603000  -667.93681     -144.42414      215.90988      0.5          
    604000  -640.24272      166.29337      219.08229      0.5          
    605000  -505.29742      41.684154      221.3518       0.5          
    606000  -530.23952     -217.13085      221.03738      0.5          
    607000  -598.08843      509.12145      221.70815      0.5          
    608000  -698.23847     -48.290171      217.33075      0.5          
    609000  -719.30228      163.17664      219.27241      0.5          
    610000  -721.04437      161.31049      220.79171      0.5          
    611000  -704.61565      58.21441       220.69743      0.5          
    612000  -629.45481     -17.70852       221.17349      0.5          
    613000  -683.92235     -16.715931      217.85241      0.5          
    614000  -640.24325      128.11027      219.54821      0.5          
    615000  -569.77984      11.259134      220.87595      0.5          
    616000  -603.20253     -170.92799      220.83378      0.5          
    617000  -688.23451      109.76801      219.14815      0.5          
    618000  -636.51247     -430.98365      216.91583      0.5          
    619000  -662.45854     -225.35055      216.90205      0.5          
    620000  -612.45652      90.372367      221.23547      0.5          
    621000  -615.66329      144.87297      219.92603      0.5          
    622000  -589.29396      129.65599      220.96637      0.5          
    623000  -696.23007     -18.403174      219.03893      0.5          
    624000  -615.93496     -380.09491      220.02533      0.5          
    625000  -718.27414     -38.494272      219.4944       0.5          
    626000  -590.08821      184.58506      222.62249      0.5          
    627000  -652.6025      -100.83046      218.39015      0.5          
    628000  -618.89946      355.87071      218.57988      0.5          
    629000  -636.82291     -67.45689       220.7016       0.5          
    630000  -583.40835     -322.07235      220.76173      0.5          
    631000  -538.45405     -64.116986      219.88363      0.5          
    632000  -632.2911      -292.44826      217.58174      0.5          
    633000  -626.3797       110.00786      220.16095      0.5          
    634000  -527.41368      147.61417      220.2806       0.5          
    635000  -549.16646      29.934693      220.81516      0.5          
    636000  -698.09094      123.55946      215.29634      0.5          
    637000  -528.8446      -108.46629      221.17621      0.5          
    638000  -567.92395     -198.71396      220.88942      0.5          
    639000  -584.88187     -33.265835      220.63028      0.5          
    640000  -644.15874      19.32773       219.12975      0.5          
    641000  -523.60793      109.25975      224.11478      0.5          
    642000  -475.1385      -147.30455      220.53931      0.5          
    643000  -506.68292     -177.49895      223.36718      0.5          
    644000  -551.82877      189.72365      221.12715      0.5          
    645000  -488.0445      -144.32312      220.95458      0.5          
    646000  -526.99385     -198.23179      220.78349      0.5          
    647000  -505.09949     -63.683659      222.55398      0.5          
    648000  -575.31749      101.60189      218.62703      0.5          
    649000  -411.47141     -104.86853      221.34562      0.5          
    650000  -454.60165      0.74767232     220.40984      0.5          
    651000  -593.67211     -92.265369      218.95665      0.5          
    652000  -490.2427       92.106371      221.1513       0.5          
    653000  -701.57667     -83.333398      216.82592      0.5          
    654000  -621.31888      41.905711      220.3362       0.5          
    655000  -622.87592      18.746216      218.43289      0.5          
    656000  -537.04544      30.501599      221.63718      0.5          
    657000  -629.35895     -39.581782      218.93976      0.5          
    658000  -591.41948     -85.486223      220.09901      0.5          
    659000  -640.52804     -186.85193      218.49854      0.5          
    660000  -587.80533     -302.5714       218.58407      0.5          
    661000  -490.11864      38.625115      224.98731      0.5          
    662000  -575.33756      128.32913      218.10531      0.5          
    663000  -572.39519     -195.62494      220.28527      0.5          
    664000  -570.41825      72.517236      218.87237      0.5          
    665000  -549.30516      259.59231      220.69503      0.5          
    666000  -649.90924     -205.9662       217.49943      0.5          
    667000  -579.03971     -22.62387       223.10847      0.5          
    668000  -679.74326      189.75178      219.54938      0.5          
    669000  -673.10419      98.560306      220.07313      0.5          
    670000  -595.717       -204.18261      219.49514      0.5          
    671000  -670.45664     -190.56326      220.8741       0.5          
    672000  -701.12272      257.87911      219.88978      0.5          
    673000  -756.98465     -293.73307      218.66932      0.5          
    674000  -662.07489     -13.04233       222.12692      0.5          
    675000  -718.63337     -183.81072      219.15724      0.5          
    676000  -839.28277     -44.938303      219.1071       0.5          
    677000  -884.62609      41.555192      219.40552      0.5          
    678000  -756.64885     -45.805751      222.01374      0.5          
    679000  -837.69789     -128.15188      221.11316      0.5          
    680000  -856.47286      80.072234      219.49626      0.5          
    681000  -969.81423      134.34633      218.18136      0.5          
    682000  -944.13145     -246.77479      222.37008      0.5          
    683000  -1072.0077      178.52758      218.49866      0.5          
    684000  -1183.4721      47.004995      215.73389      0.5          
    685000  -1089.1156     -44.741857      221.9619       0.5          
    686000  -1202.7772      86.763566      218.6632       0.5          
    687000  -1175.3462      275.88063      216.68925      0.5          
    688000  -1229.7525      259.48254      215.96663      0.5          
    689000  -1088.5236      124.94182      223.00999      0.5          
    690000  -1148.9344      185.56377      222.49915      0.5          
    691000  -1150.8923      378.82693      221.36697      0.5          
    692000  -1289.6284     -139.73039      216.17968      0.5          
    693000  -1118.1848      31.706538      218.51409      0.5          
    694000  -1110.0129      9.5969027      221.89752      0.5          
    695000  -1086.2953      9.8116641      218.44773      0.5          
    696000  -923.1172       226.19093      222.27861      0.5          
    697000  -899.21935      208.19985      221.3987       0.5          
    698000  -977.28827     -105.33642      220.03805      0.5          
    699000  -885.33203      8.0658986      223.6561       0.5          
    700000  -909.51736     -24.885497      216.24861      0.5          
    701000  -759.30469     -169.96985      217.64716      0.5          
    702000  -723.74357      12.467223      220.14657      0.5          
    703000  -693.9715      -42.325048      221.4677       0.5          
    704000  -619.58994      22.133161      222.72436      0.5          
    705000  -780.82272      206.76         219.30327      0.5          
    706000  -684.37868     -134.57938      220.07237      0.5          
    707000  -703.94895     -198.379        218.856        0.5          
    708000  -676.59638     -229.49009      220.50994      0.5          
    709000  -612.32803     -2.2161863      222.53615      0.5          
    710000  -589.8939      -58.574515      219.34441      0.5          
    711000  -521.65701     -27.267352      223.65962      0.5          
    712000  -552.40029     -124.20881      220.83136      0.5          
    713000  -686.98691      131.27198      216.52881      0.5          
    714000  -591.62081     -58.9652        221.69627      0.5          
    715000  -665.11026     -277.97573      221.28785      0.5          
    716000  -722.77354     -238.06284      219.51943      0.5          
    717000  -686.44029     -1.9063404      221.9069       0.5          
    718000  -754.33286      187.34195      219.53303      0.5          
    719000  -844.52472      62.706204      217.53164      0.5          
    720000  -856.08097     -268.12137      217.51493      0.5          
    721000  -760.62339     -126.5131       219.7447       0.5          
    722000  -818.64546     -66.225947      223.02793      0.5          
    723000  -884.13774     -137.58213      219.12312      0.5          
    724000  -800.14011      2.9567108      221.01209      0.5          
    725000  -914.62451     -33.507185      219.83348      0.5          
    726000  -951.25949      21.34065       219.31228      0.5          
    727000  -1011.5583      92.286156      217.80955      0.5          
    728000  -996.19999      41.402316      218.45267      0.5          
    729000  -880.4155       285.88532      221.83817      0.5          
    730000  -1007.311       115.72065      218.79559      0.5          
    731000  -971.73843      88.265934      220.52911      0.5          
    732000  -1158.3204      29.701418      215.56644      0.5          
    733000  -967.1468       382.61393      221.34933      0.5          
    734000  -905.58655      348.69109      221.26826      0.5          
    735000  -958.66621     -99.516549      219.7553       0.5          
    736000  -884.92353      73.510886      221.03087      0.5          
    737000  -896.8544       292.70173      222.54084      0.5          
    738000  -927.91498     -102.19394      217.54515      0.5          
    739000  -914.77755     -51.847142      219.51084      0.5          
    740000  -868.02236      207.97414      218.43242      0.5          
    741000  -931.31231     -47.322771      216.0106       0.5          
    742000  -685.90226      75.589412      222.63217      0.5          
    743000  -747.93411     -110.61038      220.34069      0.5          
    744000  -813.94228      96.363637      218.15339      0.5          
    745000  -760.63266      139.20449      219.76914      0.5          
    746000  -574.77674     -261.17342      224.41332      0.5          
    747000  -701.43104     -87.117903      216.8426       0.5          
    748000  -741.46869      288.42063      218.28995      0.5          
    749000  -706.38043     -19.13888       221.60797      0.5          
    750000  -662.28806     -197.94165      219.72523      0.5          
    751000  -688.53832     -258.08137      218.40394      0.5          
    752000  -583.88287     -86.106363      222.65652      0.5          
    753000  -797.97308      140.13707      217.83075      0.5          
    754000  -863.82942      12.382759      216.31098      0.5          
    755000  -685.68462     -194.24915      222.14545      0.5          
    756000  -840.01174     -40.69075       215.75716      0.5          
    757000  -775.09059      100.89594      219.62375      0.5          
    758000  -806.23691     -139.72643      218.89556      0.5          
    759000  -637.86732      93.775851      226.85488      0.5          
    760000  -749.46929     -26.732449      223.92792      0.5          
    761000  -786.19788     -60.24478       218.40217      0.5          
    762000  -707.36762      92.734336      224.19045      0.5          
    763000  -788.65016      132.2315       222.25405      0.5          
    764000  -787.3993      -29.162036      223.85737      0.5          
    765000  -884.74517     -59.219469      219.67895      0.5          
    766000  -929.91783      13.12542       219.20393      0.5          
    767000  -906.37686      70.532076      217.59843      0.5          
    768000  -848.84307      188.33813      219.81068      0.5          
    769000  -816.09966     -115.99518      219.93281      0.5          
    770000  -932.41705      68.947895      219.34591      0.5          
    771000  -808.09985     -43.604391      223.21459      0.5          
    772000  -886.77266     -68.125736      218.58738      0.5          
    773000  -792.07258      41.040972      222.2486       0.5          
    774000  -961.44664      123.13746      217.82287      0.5          
    775000  -869.19985      111.30394      219.17685      0.5          
    776000  -876.98174     -9.2056689      220.38904      0.5          
    777000  -853.3497       114.90302      218.47473      0.5          
    778000  -844.93913     -60.46226       218.8107       0.5          
    779000  -810.50697      11.038095      220.1961       0.5          
    780000  -802.42953      167.04863      219.01179      0.5          
    781000  -785.97145      139.57959      220.73041      0.5          
    782000  -820.63843     -97.522225      217.95053      0.5          
    783000  -758.4962      -17.764549      221.98303      0.5          
    784000  -857.70628      339.27974      218.63896      0.5          
    785000  -863.26446     -133.08928      221.05045      0.5          
    786000  -730.56071     -65.322417      219.93         0.5          
    787000  -866.25392      122.58605      218.03044      0.5          
    788000  -770.94641      49.842973      222.5886       0.5          
    789000  -759.28035     -77.901693      220.83173      0.5          
    790000  -870.35789      104.96503      221.68212      0.5          
    791000  -812.75273      253.45044      217.67035      0.5          
    792000  -763.83536     -177.07277      218.28469      0.5          
    793000  -699.73495     -285.4001       222.31976      0.5          
    794000  -674.81859      3.1514346      222.68486      0.5          
    795000  -748.08036      15.716813      219.02209      0.5          
    796000  -676.00557     -89.811197      223.27078      0.5          
    797000  -787.86727     -121.06763      219.90337      0.5          
    798000  -686.97769     -46.483691      222.27155      0.5          
    799000  -795.76537      45.57741       217.74716      0.5          
    800000  -719.17068      204.21991      220.35569      0.5          
    801000  -799.98451      106.11063      222.45184      0.5          
    802000  -654.60243     -55.187004      222.22172      0.5          
    803000  -814.42856     -42.692476      221.70205      0.5          
    804000  -829.15857      82.440596      218.48348      0.5          
    805000  -829.61143      145.03772      218.02319      0.5          
    806000  -858.04395     -317.15588      217.69515      0.5          
    807000  -905.56379     -134.19805      221.02785      0.5          
    808000  -858.03754     -43.453397      221.07724      0.5          
    809000  -825.63345      107.5856       220.33332      0.5          
    810000  -1014.7802     -46.471341      215.0522       0.5          
    811000  -847.90576     -13.683212      219.60103      0.5          
    812000  -856.17536      261.84901      223.6564       0.5          
    813000  -821.81653     -226.8347       221.76931      0.5          
    814000  -861.88889      35.286477      218.78792      0.5          
    815000  -807.99812      320.7063       220.00555      0.5          
    816000  -877.38773      84.357231      215.76084      0.5          
    817000  -971.94016     -223.28762      217.09089      0.5          
    818000  -757.24898     -87.094447      220.58791      0.5          
    819000  -901.23968     -317.63268      218.0131       0.5          
    820000  -896.5583       84.492761      218.37928      0.5          
    821000  -961.05117      74.552164      218.29186      0.5          
    822000  -831.50155     -37.288624      221.26583      0.5          
    823000  -888.6924       108.26815      219.23635      0.5          
    824000  -896.47393     -55.165871      220.21995      0.5          
    825000  -935.45216      112.95852      220.49641      0.5          
    826000  -724.2663       18.36817       224.99647      0.5          
    827000  -865.8864      -115.03671      219.11687      0.5          
    828000  -849.93883      17.613141      219.6742       0.5          
    829000  -824.95334      73.965155      220.90058      0.5          
    830000  -890.56277     -80.273268      220.99098      0.5          
    831000  -834.15837     -31.26103       219.31086      0.5          
    832000  -856.91127      19.499665      220.33527      0.5          
    833000  -797.40773      151.77844      222.46001      0.5          
    834000  -808.0596       30.694966      220.70053      0.5          
    835000  -904.63027     -103.4644       218.06527      0.5          
    836000  -884.82238      107.69821      219.61693      0.5          
    837000  -990.82678     -202.96036      214.59996      0.5          
    838000  -793.07198     -160.50238      222.61432      0.5          
    839000  -868.46444      196.52629      218.26948      0.5          
    840000  -860.66488      43.131639      216.76641      0.5          
    841000  -724.62507     -290.2215       222.84978      0.5          
    842000  -861.55563      98.052164      217.22406      0.5          
    843000  -825.77878      175.40161      221.34568      0.5          
    844000  -772.35641     -73.810455      222.98842      0.5          
    845000  -804.08878      153.77467      222.13062      0.5          
    846000  -849.59344     -20.917949      221.05152      0.5          
    847000  -925.62686     -256.72361      215.32212      0.5          
    848000  -849.66504      164.8287       223.94817      0.5          
    849000  -809.15499      135.43854      222.2338       0.5          
    850000  -870.37272     -58.700385      218.92659      0.5          
    851000  -735.49605     -79.411968      223.39058      0.5          
    852000  -721.17729     -59.441017      222.65459      0.5          
    853000  -772.48486      109.11738      218.05715      0.5          
    854000  -839.82594     -185.08132      219.64671      0.5          
    855000  -767.62211     -126.61303      221.03991      0.5          
    856000  -836.63284     -280.16962      217.42713      0.5          
    857000  -796.52853      49.598142      219.88588      0.5          
    858000  -691.30297      13.685223      220.92692      0.5          
    859000  -932.03085      73.009716      215.61666      0.5          
    860000  -889.80828      22.18506       215.75088      0.5          
    861000  -697.76281     -74.238529      219.92241      0.5          
    862000  -753.75968     -66.420875      219.07438      0.5          
    863000  -727.63938      18.363222      219.76845      0.5          
    864000  -708.49551     -51.480757      219.53216      0.5          
    865000  -681.88071     -29.43019       221.71311      0.5          
    866000  -703.45955     -117.53543      218.60526      0.5          
    867000  -623.81549     -65.351367      222.87778      0.5          
    868000  -747.68154      2.4419674      222.76464      0.5          
    869000  -704.60176      64.310599      223.15954      0.5          
    870000  -694.5767      -58.782482      223.45818      0.5          
    871000  -709.90123      224.69355      220.18441      0.5          
    872000  -732.8435       8.8127097      221.34751      0.5          
    873000  -829.03295     -55.646339      219.49016      0.5          
    874000  -736.65051      84.799585      221.71465      0.5          
    875000  -870.90236      161.50067      219.30739      0.5          
    876000  -839.4977      -68.821046      221.56906      0.5          
    877000  -815.20188     -338.39311      222.37021      0.5          
    878000  -926.59984      193.2033       218.57225      0.5          
    879000  -861.89634      58.30456       219.40956      0.5          
    880000  -901.45215     -307.1441       219.38731      0.5          
    881000  -923.89488     -54.710754      218.83746      0.5          
    882000  -830.80624      47.213126      218.15515      0.5          
    883000  -728.55695      262.09454      222.42743      0.5          
    884000  -801.99605     -2.966655       220.95463      0.5          
    885000  -840.41965      88.680524      221.80106      0.5          
    886000  -792.86094     -11.446199      220.65718      0.5          
    887000  -765.71613     -71.353281      220.12624      0.5          
    888000  -792.78987     -4.5274448      221.61122      0.5          
    889000  -818.18779      111.9433       219.15566      0.5          
    890000  -859.30829     -170.05108      219.3765       0.5          
    891000  -782.75011     -8.049106       221.49343      0.5          
    892000  -900.44811      204.08584      215.39396      0.5          
    893000  -805.27195      94.238169      216.63166      0.5          
    894000  -808.34163     -138.42167      220.85238      0.5          
    895000  -926.14875     -24.527605      219.34363      0.5          
    896000  -862.90802     -74.590953      216.89382      0.5          
    897000  -658.45556      19.446623      219.48611      0.5          
    898000  -770.51651      127.3683       222.46056      0.5          
    899000  -736.57064     -77.22895       223.51411      0.5          
    900000  -762.7713       255.31002      220.6653       0.5          
    901000  -798.0552       102.87296      218.76727      0.5          
    902000  -733.28345     -14.850412      219.36098      0.5          
    903000  -837.76276      7.5362825      218.59035      0.5          
    904000  -841.4073       247.53255      218.70618      0.5          
    905000  -784.61893      38.669043      222.56455      0.5          
    906000  -813.45011     -140.76737      219.8417       0.5          
    907000  -783.76386      50.031974      218.94566      0.5          
    908000  -792.81466     -193.18937      219.55553      0.5          
    909000  -810.91192     -48.105213      220.60148      0.5          
    910000  -745.31748      111.27534      220.60954      0.5          
    911000  -767.03792      137.91986      222.6732       0.5          
    912000  -871.13329      75.821251      218.84964      0.5          
    913000  -765.12924      244.98086      221.36412      0.5          
    914000  -814.28808     -9.1868889      221.0287       0.5          
    915000  -781.25373     -128.18155      220.94679      0.5          
    916000  -783.42075      217.39479      220.66867      0.5          
    917000  -847.10588     -159.52083      219.1423       0.5          
    918000  -916.88294     -439.25462      218.52487      0.5          
    919000  -800.81479     -71.176821      218.72293      0.5          
    920000  -876.92589      67.378234      219.82584      0.5          
    921000  -728.90535      118.2469       218.52124      0.5          
    922000  -720.79758      49.474136      221.94317      0.5          
    923000  -851.91878     -144.32016      217.84332      0.5          
    924000  -794.33551     -55.393833      217.41078      0.5          
    925000  -822.06205     -78.573553      221.15592      0.5          
    926000  -737.65036      80.539647      219.38149      0.5          
    927000  -788.34518      77.802232      218.76082      0.5          
    928000  -676.07425      27.650063      223.7273       0.5          
    929000  -739.6509       124.65834      222.52339      0.5          
    930000  -846.59171      214.47866      217.38255      0.5          
    931000  -825.70206      30.604041      218.28624      0.5          
    932000  -769.47491     -225.5992       220.87033      0.5          
    933000  -798.48956      22.52097       221.86813      0.5          
    934000  -866.49581      39.2205        220.77071      0.5          
    935000  -924.6208      -158.17257      216.05325      0.5          
    936000  -794.15769     -218.64447      219.75093      0.5          
    937000  -854.76878      79.006245      219.52725      0.5          
    938000  -801.32392     -11.504285      220.32918      0.5          
    939000  -843.93798     -31.6408        221.10863      0.5          
    940000  -797.52998      41.975554      220.83208      0.5          
    941000  -896.2773      -48.958171      216.73232      0.5          
    942000  -815.97503      310.05013      219.44619      0.5          
    943000  -826.42286     -137.49086      219.84232      0.5          
    944000  -803.24933     -100.06733      222.70401      0.5          
    945000  -775.1782      -27.954551      221.98791      0.5          
    946000  -754.34912      11.52111       222.23516      0.5          
    947000  -803.6173       245.05456      219.62424      0.5          
    948000  -789.23234     -127.82048      218.99319      0.5          
    949000  -745.96227      50.777867      220.32718      0.5          
    950000  -862.78509     -54.792814      218.03691      0.5          
    951000  -723.75268     -212.76331      221.01303      0.5          
    952000  -651.10136     -244.04803      222.1191       0.5          
    953000  -760.59988      168.35423      222.73724      0.5          
    954000  -874.69504      159.18492      218.64618      0.5          
    955000  -781.12755      20.561998      221.7533       0.5          
    956000  -793.07866     -46.27783       219.81613      0.5          
    957000  -780.06022      22.461457      218.38607      0.5          
    958000  -810.74199      245.81693      219.16997      0.5          
    959000  -716.51734      12.867855      218.72611      0.5          
    960000  -786.56774     -118.55421      220.74899      0.5          
    961000  -794.35593      13.011862      220.63376      0.5          
    962000  -831.14851      175.07033      219.46621      0.5          
    963000  -786.57361      106.50457      220.06754      0.5          
    964000  -733.80496      157.90635      220.71206      0.5          
    965000  -786.26702      232.96772      220.30153      0.5          
    966000  -831.60207     -210.41313      216.96105      0.5          
    967000  -723.57694     -233.91203      222.76998      0.5          
    968000  -721.73636      111.52475      223.71108      0.5          
    969000  -732.82477     -3.4567465      221.51442      0.5          
    970000  -732.9669      -255.66045      224.29053      0.5          
    971000  -841.07962      237.48781      219.34373      0.5          
    972000  -862.69411     -46.469895      219.64176      0.5          
    973000  -853.29721     -191.34828      218.21038      0.5          
    974000  -916.57        -131.72418      214.77693      0.5          
    975000  -860.7205      -39.419981      217.27261      0.5          
    976000  -666.21106     -79.207207      223.99868      0.5          
    977000  -755.6516       272.07651      219.72719      0.5          
    978000  -771.72935      169.91579      216.45617      0.5          
    979000  -739.16215      84.145245      220.41504      0.5          
    980000  -756.55281      171.75973      219.50721      0.5          
    981000  -690.5029       73.328774      221.04974      0.5          
    982000  -714.99012     -227.63786      220.34504      0.5          
    983000  -769.83123     -181.86499      216.4014       0.5          
    984000  -798.49256     -60.117895      219.39575      0.5          
    985000  -726.26906      240.22384      222.21897      0.5          
    986000  -713.54012     -127.55989      219.91331      0.5          
    987000  -716.49849      182.43447      222.43384      0.5          
    988000  -900.86732     -51.060598      217.18506      0.5          
    989000  -898.88661     -166.89246      218.05731      0.5          
    990000  -809.98561      418.05346      218.20305      0.5          
    991000  -657.1329      -14.135345      222.71247      0.5          
    992000  -752.3177      -260.84827      222.01412      0.5          
    993000  -827.93918     -9.9847007      217.01692      0.5          
    994000  -727.9955       130.37397      223.62913      0.5          
    995000  -790.88722     -86.404094      221.82737      0.5          
    996000  -779.41338     -181.25118      221.11661      0.5          
    997000  -887.32884      61.037158      218.01654      0.5          
    998000  -737.75114      20.442455      221.93473      0.5          
    999000  -777.78693     -81.491644      219.3162       0.5          
   1000000  -782.63459      278.18987      222.47239      0.5          
   1001000  -879.21074     -104.79211      219.49238      0.5          
   1002000  -874.93755     -167.26887      220.48867      0.5          
   1003000  -882.01168      154.90107      217.26747      0.5          
   1004000  -887.33291      175.71581      218.72573      0.5          
   1005000  -772.56146     -5.2747699      224.3681       0.5          
   1006000  -844.59714     -30.239419      221.21091      0.5          
   1007000  -777.78091      247.40288      220.26454      0.5          
   1008000  -826.77114     -247.93661      222.15599      0.5          
   1009000  -875.07265     -123.36782      218.49868      0.5          
   1010000  -767.99492      195.91991      222.00576      0.5          
   1011000  -982.19432     -33.741632      216.13962      0.5          
   1012000  -881.15922      94.552271      219.08524      0.5          
   1013000  -828.43186      53.550403      222.74302      0.5          
   1014000  -735.47911     -89.806529      222.97581      0.5          
   1015000  -944.7396      -86.103723      214.96311      0.5          
   1016000  -678.34659     -349.73459      223.38874      0.5          
   1017000  -784.35255     -14.155465      220.2177       0.5          
   1018000  -818.80962      164.54581      219.90044      0.5          
   1019000  -870.85599     -285.35463      216.96989      0.5          
   1020000  -723.75673      53.993308      223.78948      0.5          
   1021000  -841.54803      311.44586      218.04057      0.5          
   1022000  -818.90327     -3.0183582      218.81112      0.5          
   1023000  -831.03845     -174.2079       218.74245      0.5          
   1024000  -778.12403      361.6856       221.76411      0.5          
   1025000  -757.48859     -206.9953       219.55341      0.5          
   1026000  -887.69457     -167.1413       218.25865      0.5          
   1027000  -790.70826     -15.565115      220.20135      0.5          
   1028000  -802.35173     -213.71262      220.23994      0.5          
   1029000  -781.07726      62.92402       219.40171      0.5          
   1030000  -747.42845     -51.991289      218.6452       0.5          
   1031000  -786.516        15.276181      220.12491      0.5          
   1032000  -740.18135     -52.254429      221.81341      0.5          
   1033000  -814.66603     -231.50203      218.44895      0.5          
   1034000  -742.23447      121.16536      221.14084      0.5          
   1035000  -794.46407     -9.5478441      219.38283      0.5          
   1036000  -800.50978     -169.54154      217.01923      0.5          
   1037000  -716.1027      -0.58049145     220.66333      0.5          
   1038000  -853.64487      376.80303      220.57938      0.5          
   1039000  -814.41855     -231.69894      219.59329      0.5          
   1040000  -899.70862     -220.6123       220.0687       0.5          
   1041000  -870.00612      204.96689      217.39684      0.5          
   1042000  -851.61489      155.66069      219.36626      0.5          
   1043000  -856.60828      134.83932      217.81335      0.5          
   1044000  -988.67465      137.15013      216.73955      0.5          
   1045000  -900.08215      45.220136      216.26834      0.5          
   1046000  -794.00449      355.95855      224.5825       0.5          
   1047000  -933.26776      155.72457      218.14408      0.5          
   1048000  -854.05556      46.928995      219.86961      0.5          
   1049000  -891.02552      63.61204       220.28487      0.5          
   1050000  -876.75301     -87.459605      221.30272      0.5          
   1051000  -902.94042     -29.748656      217.82999      0.5          
   1052000  -850.52587      270.60314      216.47169      0.5          
   1053000  -894.70432      96.902569      220.75738      0.5          
   1054000  -990.4701      -285.17266      218.10595      0.5          
   1055000  -881.44393     -1.1198693      218.28497      0.5          
   1056000  -845.3784       257.30689      219.16829      0.5          
   1057000  -808.14527     -319.57651      222.43607      0.5          
   1058000  -826.59161      47.241466      219.59451      0.5          
   1059000  -748.33737      106.92448      221.89655      0.5          
   1060000  -679.79851     -64.858023      223.06703      0.5          
   1061000  -759.02262      4.1605577      219.7314       0.5          
   1062000  -735.49685     -124.94416      217.99683      0.5          
   1063000  -712.93911     -13.519234      224.07127      0.5          
   1064000  -763.52071     -57.712065      220.36394      0.5          
   1065000  -680.24447      46.566741      221.21289      0.5          
   1066000  -800.98652      48.756441      219.00705      0.5          
   1067000  -766.41485     -277.54613      220.82555      0.5          
   1068000  -717.61342     -120.9852       222.49909      0.5          
   1069000  -711.78433      105.499        221.72191      0.5          
   1070000  -778.93266      120.41976      221.73685      0.5          
   1071000  -775.25506      423.28423      223.3972       0.5          
   1072000  -839.34591     -125.1425       219.28186      0.5          
   1073000  -928.76456     -228.6211       216.7343       0.5          
   1074000  -805.48429      166.88554      222.02397      0.5          
   1075000  -750.03576      196.22653      220.16008      0.5          
   1076000  -673.30337     -124.67003      225.3544       0.5          
   1077000  -759.38602     -7.0832272      221.75272      0.5          
   1078000  -665.36948      276.60225      220.21427      0.5          
   1079000  -870.77492      93.793416      216.51961      0.5          
   1080000  -731.52176     -55.873963      222.54239      0.5          
   1081000  -737.99365      1.7951893      220.72188      0.5          
   1082000  -939.98206     -151.98335      217.2676       0.5          
   1083000  -775.19026     -60.906984      223.1592       0.5          
   1084000  -903.65886     -87.63667       218.62295      0.5          
   1085000  -810.17278     -38.265687      217.64113      0.5          
   1086000  -768.03266     -324.06758      221.6762       0.5          
   1087000  -798.8814      -56.731001      220.8282       0.5          
   1088000  -815.57318      179.1511       219.93823      0.5          
   1089000  -805.90806      159.56855      221.39083      0.5          
   1090000  -850.63993     -12.181287      221.6792       0.5          
   1091000  -849.96164     -117.61507      219.29824      0.5          
   1092000  -770.32045      181.25158      222.14765      0.5          
   1093000  -843.47813      85.748701      219.61903      0.5          
   1094000  -810.28919      174.89052      223.49519      0.5          
   1095000  -819.25889     -299.25802      219.99576      0.5          
   1096000  -973.9237       174.40246      214.6197       0.5          
   1097000  -965.46071      156.62437      217.59623      0.5          
   1098000  -819.53432     -371.67887      223.65129      0.5          
   1099000  -806.18995     -47.9507        223.54943      0.5          
   1100000  -869.50867     -14.91997       220.09788      0.5          
   1101000  -854.83096     -0.68106526     220.42521      0.5          
   1102000  -855.59062     -174.80823      220.8351       0.5          
   1103000  -856.059        247.49334      221.26811      0.5          
   1104000  -821.30338      12.531941      222.38317      0.5          
   1105000  -863.63239     -439.81731      217.76808      0.5          
   1106000  -869.51999      111.90905      215.78641      0.5          
   1107000  -798.4098       304.61806      221.89307      0.5          
   1108000  -973.82135     -110.98478      217.88794      0.5          
   1109000  -911.18671      51.569978      216.86298      0.5          
   1110000  -869.42343     -18.04805       216.96634      0.5          
   1111000  -752.06631     -270.95384      221.35122      0.5          
   1112000  -802.70482     -25.368409      219.58534      0.5          
   1113000  -859.68127      337.07023      217.38522      0.5          
   1114000  -826.08726      106.00695      220.10125      0.5          
   1115000  -882.34738     -122.04953      218.93032      0.5          
   1116000  -752.8018      -294.31886      221.41011      0.5          
   1117000  -787.64599      1.048592       221.85322      0.5          
   1118000  -819.55912      241.95113      219.7554       0.5          
   1119000  -837.84804      78.652295      219.14149      0.5          
   1120000  -804.531       -161.91137      222.9523       0.5          
   1121000  -804.76494     -45.285046      221.28323      0.5          
   1122000  -755.37754     -30.143559      224.2356       0.5          
   1123000  -959.82669     -53.666717      217.45833      0.5          
   1124000  -854.89741     -44.793607      221.03243      0.5          
   1125000  -927.23526     -18.903853      219.29268      0.5          
   1126000  -860.01717      153.79755      220.44053      0.5          
   1127000  -924.04933      39.726997      219.38689      0.5          
   1128000  -758.51262     -47.559764      222.62031      0.5          
   1129000  -848.86203      49.783624      220.29599      0.5          
   1130000  -904.4665      -69.310245      218.21248      0.5          
   1131000  -870.92599      128.79627      218.73868      0.5          
   1132000  -734.73862     -33.482332      222.06767      0.5          
   1133000  -705.83812     -176.57069      224.28973      0.5          
   1134000  -796.49681     -4.3177052      221.24637      0.5          
   1135000  -822.57763      166.54081      220.23322      0.5          
   1136000  -843.56348      83.374117      220.89392      0.5          
   1137000  -795.69399      117.59211      221.52284      0.5          
   1138000  -907.81523     -71.820396      216.29631      0.5          
   1139000  -847.86146     -68.855749      217.55035      0.5          
   1140000  -780.7291       160.73936      221.28646      0.5          
   1141000  -759.82946     -109.97224      223.30536      0.5          
   1142000  -817.81372     -15.164864      221.10056      0.5          
   1143000  -772.23556      55.030274      224.96245      0.5          
   1144000  -841.25742     -354.57421      220.50938      0.5          
   1145000  -857.99748     -20.378459      217.27941      0.5          
   1146000  -760.91939     -67.703543      219.38889      0.5          
   1147000  -842.76465     -62.403697      220.00828      0.5          
   1148000  -896.55381     -18.389377      219.86722      0.5          
   1149000  -817.68188     -53.736134      221.65427      0.5          
   1150000  -712.1743      -308.01613      221.69678      0.5          
   1151000  -882.43141     -56.809844      217.41206      0.5          
   1152000  -756.51245     -336.28776      223.0058       0.5          
   1153000  -735.37432     -240.95366      223.68584      0.5          
   1154000  -817.19679      44.549192      218.41997      0.5          
   1155000  -740.57209      103.3053       221.51526      0.5          
   1156000  -740.22776     -190.14682      218.6046       0.5          
   1157000  -823.28265      18.412698      220.28965      0.5          
   1158000  -803.2716      -64.287814      218.92532      0.5          
   1159000  -834.56219     -68.921951      220.54196      0.5          
   1160000  -828.84192      89.220218      220.99568      0.5          
   1161000  -805.34439     -152.60792      219.3691       0.5          
   1162000  -814.1477      -52.364951      218.5692       0.5          
   1163000  -828.30037      39.511901      220.52559      0.5          
   1164000  -855.57189      106.69439      218.17964      0.5          
   1165000  -815.44675      96.076492      222.59138      0.5          
   1166000  -781.90684      187.52178      223.06464      0.5          
   1167000  -837.2924       281.8067       220.87239      0.5          
   1168000  -866.95034      10.101863      218.39103      0.5          
   1169000  -834.21053     -369.21783      219.75577      0.5          
   1170000  -830.78986     -99.707329      221.20625      0.5          
   1171000  -788.07969      18.385131      218.86978      0.5          
   1172000  -795.60364     -22.331934      222.63766      0.5          
   1173000  -976.76162     -199.68262      216.19609      0.5          
   1174000  -817.93148      135.95044      219.18455      0.5          
   1175000  -827.08526      158.39843      220.66245      0.5          
   1176000  -796.56192     -135.65763      221.48511      0.5          
   1177000  -819.58953     -161.62392      219.8737       0.5          
   1178000  -830.84661      20.382682      219.63013      0.5          
   1179000  -804.8187       4.7541372      222.85191      0.5          
   1180000  -728.72968      150.25521      221.63635      0.5          
   1181000  -810.39008      174.09957      219.26607      0.5          
   1182000  -775.18058      1.4219001      218.72363      0.5          
   1183000  -920.87889     -23.801643      218.06115      0.5          
   1184000  -877.4875      -67.114474      219.1836       0.5          
   1185000  -785.35615      291.90724      218.55341      0.5          
   1186000  -785.12707     -57.676492      218.67686      0.5          
   1187000  -722.08186     -404.56933      220.9704       0.5          
   1188000  -742.50176     -1.0634517      224.67331      0.5          
   1189000  -749.08004      57.116629      220.18545      0.5          
   1190000  -760.44723     -18.267048      218.12458      0.5          
   1191000  -741.06633     -211.34619      222.79524      0.5          
   1192000  -839.01569     -262.28444      221.22801      0.5          
   1193000  -721.79862      14.884438      223.38542      0.5          
   1194000  -923.2652      -62.23046       216.31471      0.5          
   1195000  -757.00159      86.338491      221.70341      0.5          
   1196000  -776.51762      57.289953      221.01305      0.5          
   1197000  -890.08503      264.37757      219.38605      0.5          
   1198000  -865.62509     -181.47218      219.50214      0.5          
   1199000  -878.29429     -16.698712      219.52526      0.5          
   1200000  -841.92211     -8.249253       221.77956      0.5          
   1201000  -865.47621     -115.87177      218.59687      0.5          
   1202000  -822.92784      79.822159      220.54576      0.5          
   1203000  -914.65107     -113.06624      219.66904      0.5          
   1204000  -835.3426      -8.0282582      220.844        0.5          
   1205000  -900.10295      112.14026      219.30876      0.5          
   1206000  -850.58325     -84.394766      222.2625       0.5          
   1207000  -942.61335     -269.56418      216.7757       0.5          
   1208000  -816.0573       201.27754      224.22723      0.5          
   1209000  -855.10857      327.23375      221.57517      0.5          
   1210000  -815.71428      16.138095      222.24203      0.5          
   1211000  -803.02728     -77.963923      222.13313      0.5          
   1212000  -858.85106      268.24756      219.96401      0.5          
   1213000  -784.01797      406.78737      222.08439      0.5          
   1214000  -832.12914      44.967829      218.99927      0.5          
   1215000  -839.99677     -353.4615       220.46323      0.5          
   1216000  -887.31812      91.838211      219.91869      0.5          
   1217000  -894.82246     -6.1935648      215.06678      0.5          
   1218000  -821.20646     -239.2303       220.13541      0.5          
   1219000  -748.06267      10.737713      220.88765      0.5          
   1220000  -859.49432     -46.870934      216.78195      0.5          
   1221000  -744.25223     -161.65836      224.86456      0.5          
   1222000  -815.66872     -232.32924      221.19568      0.5          
   1223000  -787.09732     -35.973464      219.40974      0.5          
   1224000  -833.48963      207.0481       218.63207      0.5          
   1225000  -696.1162       214.51229      224.38303      0.5          
   1226000  -874.84378     -135.93227      215.41101      0.5          
   1227000  -795.5028      -156.20632      219.46072      0.5          
   1228000  -802.77566     -84.986377      218.34         0.5          
   1229000  -900.08102      140.4079       217.63421      0.5          
   1230000  -925.06282     -40.41163       220.6708       0.5          
   1231000  -920.05064     -140.00061      217.11171      0.5          
   1232000  -793.32734     -255.20363      219.50904      0.5          
   1233000  -765.46073     -13.048748      222.96091      0.5          
   1234000  -793.35675      194.64112      218.882        0.5          
   1235000  -904.33221     -37.609785      217.72194      0.5          
   1236000  -853.68421     -50.275434      220.99761      0.5          
   1237000  -854.00504      17.884059      220.61644      0.5          
   1238000  -826.36427     -166.28561      222.59237      0.5          
   1239000  -890.06718      59.40547       223.02159      0.5          
   1240000  -916.84719      50.368353      215.86499      0.5          
   1241000  -777.22594     -87.445853      219.00407      0.5          
   1242000  -735.80848      185.30759      221.68077      0.5          
   1243000  -804.96832      38.037752      222.06356      0.5          
   1244000  -802.76049     -339.85895      220.38275      0.5          
   1245000  -802.61219      20.162722      221.85461      0.5          
   1246000  -1016.7902      222.17014      215.15131      0.5          
   1247000  -778.775       -41.986215      221.05638      0.5          
   1248000  -815.78381     -75.125622      220.34689      0.5          
   1249000  -859.70582     -29.627066      221.62982      0.5          
   1250000  -753.74142      117.30042      224.62715      0.5          
   1251000  -944.16395     -220.48342      214.33459      0.5          
   1252000  -882.17084     -15.501835      221.19311      0.5          
   1253000  -890.40526     -90.259437      219.82027      0.5          
   1254000  -814.99304      78.171005      220.3364       0.5          
   1255000  -895.88712      27.893722      216.52156      0.5          
   1256000  -848.02556      95.466155      219.79484      0.5          
   1257000  -897.53426     -106.85061      219.01781      0.5          
   1258000  -861.89226      129.45682      217.20866      0.5          
   1259000  -943.05973     -106.38847      219.775        0.5          
   1260000  -913.27585      136.1613       219.50677      0.5          
   1261000  -843.75936      104.42517      221.15704      0.5          
   1262000  -831.24854     -151.40305      218.996        0.5          
   1263000  -918.39838      26.968978      215.59047      0.5          
   1264000  -863.21321      119.59802      220.75608      0.5          
   1265000  -784.63966      188.06752      222.03637      0.5          
   1266000  -820.86115      226.32473      219.62645      0.5          
   1267000  -817.83333     -222.48465      219.64223      0.5          
   1268000  -862.37356     -221.59905      220.73957      0.5          
   1269000  -680.52503      228.55064      220.75539      0.5          
   1270000  -744.36787      8.840946       219.51527      0.5          
   1271000  -769.6034       15.825454      219.56507      0.5          
   1272000  -747.62299     -3.5810848      221.37138      0.5          
   1273000  -823.9796      -293.25063      220.43957      0.5          
   1274000  -813.20726     -58.529514      217.70106      0.5          
   1275000  -731.02565      38.349247      223.5014       0.5          
   1276000  -778.84444      35.017576      220.43482      0.5          
   1277000  -759.96782     -33.827558      218.54811      0.5          
   1278000  -891.81422     -401.34543      214.36625      0.5          
   1279000  -873.30636     -248.0156       216.4695       0.5          
   1280000  -911.81171      51.669646      213.77346      0.5          
   1281000  -756.92224     -266.86051      221.70341      0.5          
   1282000  -713.83868     -144.54622      220.6113       0.5          
   1283000  -807.98764      44.824473      218.6427       0.5          
   1284000  -778.10037     -30.488932      218.79882      0.5          
   1285000  -647.38768      62.577858      223.3908       0.5          
   1286000  -903.01643      14.448736      216.88939      0.5          
   1287000  -734.50814      63.797771      220.95908      0.5          
   1288000  -846.86114     -107.27308      219.28587      0.5          
   1289000  -851.72003     -189.1423       218.44443      0.5          
   1290000  -723.44939     -39.21101       222.05536      0.5          
   1291000  -863.92293      215.19761      219.37942      0.5          
   1292000  -867.00176      131.90182      218.33587      0.5          
   1293000  -962.75379      5.9636329      217.82328      0.5          
   1294000  -801.60609     -141.18077      221.64886      0.5          
   1295000  -880.26661     -269.73981      220.57512      0.5          
   1296000  -944.62335      271.64645      219.94824      0.5          
   1297000  -875.38619      121.60477      221.43067      0.5          
   1298000  -968.21621      9.642536       217.57882      0.5          
   1299000  -943.08232      0.56414508     217.64352      0.5          
   1300000  -904.85973      177.32345      218.63168      0.5          
   1301000  -806.38986      72.898293      221.90729      0.5          
   1302000  -786.98669      150.73144      220.49594      0.5          
   1303000  -830.39361      51.144236      218.03276      0.5          
   1304000  -806.16716     -5.2328076      222.78801      0.5          
   1305000  -873.19759     -126.73039      220.30348      0.5          
   1306000  -925.06614     -65.020585      218.42934      0.5          
   1307000  -852.96186      98.345659      217.14552      0.5          
   1308000  -685.18104     -30.873835      222.58442      0.5          
   1309000  -794.24714     -40.698146      216.24243      0.5          
   1310000  -780.53677      84.123081      219.0769       0.5          
   1311000  -776.36275      293.82738      218.99697      0.5          
   1312000  -793.3706      -162.04719      219.08641      0.5          
   1313000  -683.12141     -114.96926      221.72727      0.5          
   1314000  -831.00764     -51.763075      218.24184      0.5          
   1315000  -700.42686     -150.18819      221.95896      0.5          
   1316000  -669.5994       73.16724       223.10094      0.5          
   1317000  -843.29454      4.3674136      215.56977      0.5          
   1318000  -743.55576      3.0071092      221.36088      0.5          
   1319000  -715.07325     -72.263965      221.38233      0.5          
   1320000  -920.09997      341.31951      217.12419      0.5          
   1321000  -813.86934     -182.3389       219.99721      0.5          
   1322000  -812.85064     -397.00999      219.35456      0.5          
   1323000  -678.41693      194.89851      221.3252       0.5          
   1324000  -716.99833      26.628483      221.43613      0.5          
   1325000  -767.18048      34.959775      221.0927       0.5          
   1326000  -809.22009      4.7159915      218.56145      0.5          
   1327000  -878.94615     -29.668288      220.47882      0.5          
   1328000  -754.56145     -29.321063      220.49284      0.5          
   1329000  -837.36414      65.921804      220.93299      0.5          
   1330000  -833.48841      13.828983      221.58766      0.5          
   1331000  -989.33557     -228.31925      216.1815       0.5          
   1332000  -841.29415      215.91155      222.02577      0.5          
   1333000  -946.21421     -57.831891      217.31965      0.5          
   1334000  -811.42036     -273.82691      218.42479      0.5          
   1335000  -973.62407      95.91763       216.14868      0.5          
   1336000  -823.97185     -22.522618      220.0419       0.5          
   1337000  -738.3351      -73.813658      220.57834      0.5          
   1338000  -815.88907     -24.114496      221.2152       0.5          
   1339000  -832.79544      241.21188      222.17807      0.5          
   1340000  -884.42809      93.245113      218.49833      0.5          
   1341000  -917.13191     -178.59808      219.65204      0.5          
   1342000  -809.97981      119.04818      223.00524      0.5          
   1343000  -968.22136      28.799077      219.27284      0.5          
   1344000  -801.28983      72.127384      220.56087      0.5          
   1345000  -904.52009      334.10159      218.30185      0.5          
   1346000  -763.35585     -7.7997957      222.69745      0.5          
   1347000  -892.89178     -236.11434      219.43925      0.5          
   1348000  -842.46413      72.314125      220.88649      0.5          
   1349000  -716.49017      252.28472      220.39346      0.5          
   1350000  -741.71082     -289.88276      221.36908      0.5          
   1351000  -735.98871     -347.68299      222.7746       0.5          
   1352000  -780.87932      80.059683      220.17846      0.5          
   1353000  -725.19601     -93.875115      221.04121      0.5          
   1354000  -765.67117     -59.969058      223.01195      0.5          
   1355000  -725.55608     -4.0988298      218.10777      0.5          
   1356000  -738.29903     -144.24423      221.555        0.5          
   1357000  -693.99977     -14.063358      221.60176      0.5          
   1358000  -627.67647     -29.999189      222.8212       0.5          
   1359000  -757.95001     -25.543149      217.64585      0.5          
   1360000  -763.71961      162.06542      223.61627      0.5          
   1361000  -839.18228     -46.176043      219.52199      0.5          
   1362000  -824.44584     -127.64581      217.69492      0.5          
   1363000  -679.62608     -119.21829      222.71991      0.5          
   1364000  -818.28432      192.46139      219.52368      0.5          
   1365000  -765.16315      43.47395       223.33448      0.5          
   1366000  -787.44468      11.195731      222.25665      0.5          
   1367000  -906.9909      -44.953909      217.1502       0.5          
   1368000  -914.05996     -24.744464      216.88984      0.5          
   1369000  -890.21002      187.89703      218.17232      0.5          
   1370000  -870.11845      3.4060788      220.66949      0.5          
   1371000  -957.75136     -4.8135142      218.43234      0.5          
   1372000  -818.31427     -173.95997      222.76371      0.5          
   1373000  -921.32599     -116.07998      216.26035      0.5          
   1374000  -857.86025     -26.819685      219.47245      0.5          
   1375000  -833.38723      357.35236      218.80738      0.5          
   1376000  -851.11955     -31.162217      218.97138      0.5          
   1377000  -790.03053      44.560137      224.32061      0.5          
   1378000  -923.55903     -120.03744      220.37966      0.5          
   1379000  -1023.6474      24.750904      217.66459      0.5          
   1380000  -928.64313      65.938849      218.04381      0.5          
   1381000  -914.43097     -88.262191      221.50787      0.5          
   1382000  -892.98475     -231.29431      222.67355      0.5          
   1383000  -928.55938      332.89645      218.87927      0.5          
   1384000  -943.53654      100.55058      217.87144      0.5          
   1385000  -783.24586      10.155467      221.4223       0.5          
   1386000  -817.82963      60.517182      221.05557      0.5          
   1387000  -766.89718     -255.26519      220.96508      0.5          
   1388000  -765.70984      8.040515       221.20144      0.5          
   1389000  -810.38182     -54.59217       215.64884      0.5          
   1390000  -824.25265      185.2054       220.46412      0.5          
   1391000  -726.57436     -397.70832      221.74832      0.5          
   1392000  -949.40696     -111.21268      217.58381      0.5          
   1393000  -882.2129       91.213591      217.60413      0.5          
   1394000  -836.45285      29.291591      219.85107      0.5          
   1395000  -867.01746      32.808225      218.05186      0.5          
   1396000  -776.83627     -204.95719      221.27676      0.5          
   1397000  -856.45322     -126.45887      217.62032      0.5          
   1398000  -678.16158     -5.4636214      222.65262      0.5          
   1399000  -807.77352     -64.888681      218.34703      0.5          
   1400000  -754.72746     -82.314331      219.9099       0.5          
   1401000  -826.22923     -52.149229      222.36038      0.5          
   1402000  -736.17368     -83.140859      220.63119      0.5          
   1403000  -704.26813      61.482915      221.30102      0.5          
   1404000  -697.4347      -197.18036      223.92855      0.5          
   1405000  -781.30619      11.124788      220.17858      0.5          
   1406000  -797.27329      189.57089      218.78662      0.5          
   1407000  -717.42556      178.42896      220.06497      0.5          
   1408000  -696.38051      28.051678      222.09691      0.5          
   1409000  -784.14635     -247.06854      218.63086      0.5          
   1410000  -924.55052      247.8159       216.94469      0.5          
   1411000  -706.54356     -138.49674      224.04593      0.5          
   1412000  -809.62621     -258.90468      221.03927      0.5          
   1413000  -883.42365      196.6074       216.3641       0.5          
   1414000  -852.02988     -47.594487      220.23945      0.5          
   1415000  -887.46545     -280.08262      220.73437      0.5          
   1416000  -986.98261      46.47151       217.469        0.5          
   1417000  -824.1143       118.76328      220.00718      0.5          
   1418000  -892.27514      101.71566      217.78132      0.5          
   1419000  -903.47851      20.007336      220.48422      0.5          
   1420000  -903.91426      4.4547637      216.51218      0.5          
   1421000  -932.35223      130.43459      217.8981       0.5          
   1422000  -931.60753     -38.555207      216.56632      0.5          
   1423000  -817.38056     -141.76465      222.71726      0.5          
   1424000  -903.38959      279.19958      221.22892      0.5          
   1425000  -722.4092       48.495413      224.04724      0.5          
   1426000  -795.52862     -460.06446      220.14107      0.5          
   1427000  -798.85123     -88.088579      219.77535      0.5          
   1428000  -830.70256     -7.9731324      220.97323      0.5          
   1429000  -898.56106      188.22688      221.10841      0.5          
   1430000  -906.38651      9.5836664      220.40933      0.5          
   1431000  -878.11287     -351.55657      219.46126      0.5          
   1432000  -832.8528      -78.626108      219.33033      0.5          
   1433000  -770.89835      45.704249      220.32295      0.5          
   1434000  -876.82705     -178.29645      216.84124      0.5          
   1435000  -727.47957      97.227965      222.66291      0.5          
   1436000  -721.43433     -50.521292      223.15109      0.5          
   1437000  -809.27938     -105.83444      220.73722      0.5          
   1438000  -778.9788       102.81955      218.74732      0.5          
   1439000  -772.4568       63.004971      219.98418      0.5          
   1440000  -848.72008     -76.97224       219.36077      0.5          
   1441000  -777.16485      125.03946      221.07871      0.5          
   1442000  -944.24355      159.88527      212.99521      0.5          
   1443000  -787.05097     -40.052953      220.28842      0.5          
   1444000  -875.3004       127.52999      216.75128      0.5          
   1445000  -789.15599     -16.945445      219.16108      0.5          
   1446000  -804.85974      59.794922      219.85484      0.5          
   1447000  -755.26682     -67.22227       221.18524      0.5          
   1448000  -791.98808      265.37414      221.59415      0.5          
   1449000  -888.28898     -187.52705      219.90409      0.5          
   1450000  -818.73455      69.06634       220.1866       0.5          
   1451000  -907.55348      243.38634      218.2819       0.5          
   1452000  -887.52842      62.229282      222.1589       0.5          
   1453000  -829.68255      129.56308      219.78965      0.5          
   1454000  -862.37979      135.73889      220.49482      0.5          
   1455000  -784.18418     -231.73397      220.69766      0.5          
   1456000  -688.2372       256.98479      222.91988      0.5          
   1457000  -854.57718      53.711663      221.89141      0.5          
   1458000  -744.03372      6.8828895      225.36767      0.5          
   1459000  -992.56241     -13.245397      215.69822      0.5          
   1460000  -919.30434     -88.864005      220.52662      0.5          
   1461000  -862.49461      261.16021      218.13095      0.5          
   1462000  -806.3782       215.02378      222.77406      0.5          
   1463000  -870.75084      60.660782      220.85561      0.5          
   1464000  -828.75899      11.815281      220.26571      0.5          
   1465000  -811.57262     -74.847911      219.27958      0.5          
   1466000  -783.16461     -19.194882      221.17171      0.5          
   1467000  -889.66239     -111.60047      215.94749      0.5          
   1468000  -752.70865      149.66378      219.88488      0.5          
   1469000  -788.56164      51.634652      221.05681      0.5          
   1470000  -706.4449       217.602        221.14918      0.5          
   1471000  -778.58308      103.33794      220.30967      0.5          
   1472000  -789.75839      56.108285      220.70848      0.5          
   1473000  -711.2121       53.676298      222.8856       0.5          
   1474000  -776.69017      33.867359      217.96834      0.5          
   1475000  -809.56691     -55.612619      219.55472      0.5          
   1476000  -776.18401     -114.01851      219.40051      0.5          
   1477000  -743.79246     -93.884817      222.46609      0.5          
   1478000  -731.69631      45.402043      219.01007      0.5          
   1479000  -751.61464      126.7155       220.53544      0.5          
   1480000  -817.60351     -75.164195      222.06091      0.5          
   1481000  -878.53371     -74.095375      216.40601      0.5          
   1482000  -765.31344      195.65666      220.16986      0.5          
   1483000  -804.90744     -82.053142      221.08214      0.5          
   1484000  -793.14331      201.62668      218.47819      0.5          
   1485000  -690.44709      18.699389      224.41151      0.5          
   1486000  -836.03458     -146.51632      219.52918      0.5          
   1487000  -782.99008      191.11742      217.92084      0.5          
   1488000  -851.24838     -185.60201      215.55875      0.5          
   1489000  -709.57049     -8.9369621      221.02394      0.5          
   1490000  -741.68959      44.042463      216.71057      0.5          
   1491000  -665.39728      97.837172      222.46264      0.5          
   1492000  -767.00757     -137.56274      220.28414      0.5          
   1493000  -759.50505     -166.48925      221.47589      0.5          
   1494000  -672.56788      26.047831      219.69119      0.5          
   1495000  -730.48198      140.5099       217.76786      0.5          
   1496000  -691.364       -46.447612      219.52819      0.5          
   1497000  -646.89063     -266.96594      222.89317      0.5          
   1498000  -795.68997      11.706678      219.89041      0.5          
   1499000  -757.19706      65.408833      220.17659      0.5          
   1500000  -825.76061      1.3592649      216.52875      0.5          
   1501000  -742.46124     -170.89199      220.92537      0.5          
   1502000  -737.04578      44.684486      223.46154      0.5          
   1503000  -782.81843     -98.461112      219.11193      0.5          
   1504000  -707.876        118.31166      219.92941      0.5          
   1505000  -774.32469      154.21538      219.3121       0.5          
   1506000  -844.11999      136.16715      219.06888      0.5          
   1507000  -795.10003     -204.17556      222.84878      0.5          
   1508000  -777.21297      113.50559      220.11701      0.5          
   1509000  -789.86758      145.17389      218.26311      0.5          
   1510000  -768.71116     -7.789247       218.81083      0.5          
   1511000  -776.04053     -196.35313      220.95687      0.5          
   1512000  -885.89425      30.259497      219.22091      0.5          
   1513000  -865.43916     -85.242749      217.62181      0.5          
   1514000  -829.14659     -45.201024      221.55811      0.5          
   1515000  -884.04155      31.899523      218.71779      0.5          
   1516000  -837.95118      93.825845      219.43591      0.5          
   1517000  -804.16413     -25.780163      218.48971      0.5          
   1518000  -773.16739     -0.11624133     220.85493      0.5          
   1519000  -876.94452      85.140289      218.36359      0.5          
   1520000  -826.36146     -112.38569      218.65589      0.5          
   1521000  -820.91576     -107.004        222.3128       0.5          
   1522000  -862.62467     -218.21554      220.41079      0.5          
   1523000  -814.39218      137.11634      217.71496      0.5          
   1524000  -804.995       -61.989685      221.02183      0.5          
   1525000  -787.08616     -316.1498       222.19294      0.5          
   1526000  -901.86557     -26.429977      214.34243      0.5          
   1527000  -743.64894      350.98831      220.42828      0.5          
   1528000  -690.181        59.250825      220.14306      0.5          
   1529000  -735.98455     -385.39423      221.58726      0.5          
   1530000  -738.21022      85.614194      221.22798      0.5          
   1531000  -618.86167     -136.79662      220.90947      0.5          
   1532000  -686.97119     -76.27111       221.10784      0.5          
   1533000  -777.42984     -124.88907      218.42081      0.5          
   1534000  -747.69511     -18.714529      220.42877      0.5          
   1535000  -731.02921     -9.8364269      219.58953      0.5          
   1536000  -727.24403      136.70769      221.63962      0.5          
   1537000  -815.65618     -170.12208      219.44487      0.5          
   1538000  -896.0885      -151.85049      215.82462      0.5          
   1539000  -783.61203      187.87533      220.08264      0.5          
   1540000  -781.752        95.991147      221.51779      0.5          
   1541000  -751.9456       5.116791       218.58156      0.5          
   1542000  -823.19047     -32.44496       217.8672       0.5          
   1543000  -865.87935      115.71226      217.7966       0.5          
   1544000  -772.50538      203.30688      219.40049      0.5          
   1545000  -817.64985     -187.59927      219.23096      0.5          
   1546000  -810.88037     -81.671731      219.12781      0.5          
   1547000  -829.75831      61.189823      218.57403      0.5          
   1548000  -873.24678      182.88054      219.62933      0.5          
   1549000  -796.82235      73.12442       219.34412      0.5          
   1550000  -906.1456      -113.72761      216.7813       0.5          
   1551000  -796.52137     -18.93615       220.33485      0.5          
   1552000  -736.46364      138.10281      223.03698      0.5          
   1553000  -751.98719      194.85246      220.8495       0.5          
   1554000  -784.83959      2.9465971      220.49641      0.5          
   1555000  -743.34666     -102.76413      221.89206      0.5          
   1556000  -847.61222      59.46575       219.51301      0.5          
   1557000  -833.18078      210.82269      221.14721      0.5          
   1558000  -844.02098     -2.4823769      219.84627      0.5          
   1559000  -742.15184      282.61855      218.83776      0.5          
   1560000  -908.53153      9.8052672      216.33801      0.5          
   1561000  -871.27277     -103.40908      220.1819       0.5          
   1562000  -887.66666     -146.66916      218.20272      0.5          
   1563000  -717.03428     -16.218896      221.17208      0.5          
   1564000  -797.90832     -391.86711      217.84244      0.5          
   1565000  -785.1982      -160.9663       221.61984      0.5          
   1566000  -827.6404       10.689109      219.83294      0.5          
   1567000  -727.76601      29.690557      222.30198      0.5          
   1568000  -736.93164     -58.584602      221.29814      0.5          
   1569000  -758.23569     -49.509184      220.68017      0.5          
   1570000  -797.28532      78.340819      221.36748      0.5          
   1571000  -609.0558      -109.56742      225.41579      0.5          
   1572000  -694.00567     -331.90576      219.68934      0.5          
   1573000  -746.10861      17.828769      217.04394      0.5          
   1574000  -720.02332     -81.50766       222.44259      0.5          
   1575000  -727.88185      18.917225      221.18049      0.5          
   1576000  -756.05511      121.10254      219.97912      0.5          
   1577000  -825.63989      11.875849      219.37224      0.5          
   1578000  -743.9455      -419.19799      219.76852      0.5          
   1579000  -800.28929     -62.384582      220.11111      0.5          
   1580000  -821.13084      179.9379       219.9602       0.5          
   1581000  -884.1974      -106.5644       220.23441      0.5          
   1582000  -940.62396     -176.49399      219.3316       0.5          
   1583000  -973.75657      23.833747      215.14166      0.5          
   1584000  -912.40782      353.61925      217.72298      0.5          
   1585000  -891.62976     -160.20328      217.01655      0.5          
   1586000  -815.23476      29.194305      219.37851      0.5          
   1587000  -869.74342      29.065611      218.07891      0.5          
   1588000  -873.74348      105.67071      218.50867      0.5          
   1589000  -822.93718      102.38083      219.32065      0.5          
   1590000  -696.55785     -87.368503      222.97542      0.5          
   1591000  -858.6935      -30.221341      218.63103      0.5          
   1592000  -737.16212      318.69693      222.43936      0.5          
   1593000  -837.58138      24.801816      220.99864      0.5          
   1594000  -813.87193     -280.00566      220.31946      0.5          
   1595000  -799.27257      88.311027      221.56355      0.5          
   1596000  -739.81312     -63.789495      220.01223      0.5          
   1597000  -773.48483      0.77600587     217.24182      0.5          
   1598000  -774.5878       105.38119      220.65175      0.5          
   1599000  -839.97091     -391.59941      216.56114      0.5          
   1600000  -884.17916      51.42867       215.93897      0.5          
   1601000  -804.86338      146.31466      215.86535      0.5          
   1602000  -656.19735      84.315822      219.74967      0.5          
   1603000  -633.61556     -217.51502      223.2906       0.5          
   1604000  -742.26389     -13.287795      218.8317       0.5          
   1605000  -684.27019      48.679423      219.36732      0.5          
   1606000  -711.30019     -77.861021      222.44748      0.5          
   1607000  -720.84283     -175.14826      219.50535      0.5          
   1608000  -774.58836     -79.986864      220.64761      0.5          
   1609000  -843.14831     -21.872942      215.42982      0.5          
   1610000  -821.54202     -225.13228      216.38243      0.5          
   1611000  -725.3986      -115.22763      219.21024      0.5          
   1612000  -726.27075     -218.29264      222.2426       0.5          
   1613000  -810.68325     -234.68009      218.36668      0.5          
   1614000  -743.58031     -96.52457       220.9934       0.5          
   1615000  -653.11491     -48.886035      223.93716      0.5          
   1616000  -756.52962     -85.76792       216.90573      0.5          
   1617000  -706.44558      106.67183      219.93177      0.5          
   1618000  -775.41302     -68.078054      218.17028      0.5          
   1619000  -802.61515     -134.7574       218.52363      0.5          
   1620000  -715.74574      213.09149      224.80996      0.5          
   1621000  -749.35192      235.40163      220.45723      0.5          
   1622000  -778.52014      116.63019      220.21853      0.5          
   1623000  -931.93402      29.05406       217.21213      0.5          
   1624000  -806.38146     -129.0753       222.75749      0.5          
   1625000  -789.87474      145.56793      222.78128      0.5          
   1626000  -767.8208       113.1217       221.3698       0.5          
   1627000  -775.77111     -44.277566      221.96267      0.5          
   1628000  -769.96744     -239.11099      222.33473      0.5          
   1629000  -844.59452      11.624298      219.95783      0.5          
   1630000  -748.54083     -37.201902      220.3953       0.5          
   1631000  -772.84988     -10.018607      223.17566      0.5          
   1632000  -737.74631      78.526897      222.40965      0.5          
   1633000  -821.17804      78.085024      216.90581      0.5          
   1634000  -630.02474      12.224111      222.67901      0.5          
   1635000  -662.89618      64.781136      220.41601      0.5          
   1636000  -698.22118     -44.915436      223.59463      0.5          
   1637000  -786.68023      8.9435763      218.68976      0.5          
   1638000  -717.76121     -8.7933958      217.38359      0.5          
   1639000  -763.91903     -259.18322      219.94118      0.5          
   1640000  -791.69106     -13.757269      218.76044      0.5          
   1641000  -660.84813      56.442585      219.83581      0.5          
   1642000  -591.93225     -108.37654      220.38981      0.5          
   1643000  -718.37758     -247.52573      217.83234      0.5          
   1644000  -620.46951      19.735752      219.59715      0.5          
   1645000  -637.64087      110.78791      219.63399      0.5          
   1646000  -694.80126      186.04799      218.85281      0.5          
   1647000  -664.10958      86.973525      216.22926      0.5          
   1648000  -564.98393     -176.47432      221.59486      0.5          
   1649000  -680.46373     -250.39873      220.55596      0.5          
   1650000  -713.17233     -220.03859      220.11671      0.5          
   1651000  -754.72084      4.2052222      218.43523      0.5          
   1652000  -632.08381      28.313436      222.08549      0.5          
   1653000  -609.59412      66.671777      223.32162      0.5          
   1654000  -738.73769      75.233249      222.73252      0.5          
   1655000  -757.60242      213.10177      220.93896      0.5          
   1656000  -749.80549     -129.89746      219.23642      0.5          
   1657000  -785.33489     -16.54438       218.90275      0.5          
   1658000  -693.8997       398.42715      221.71139      0.5          
   1659000  -607.16904      218.28519      224.96528      0.5          
   1660000  -782.89135      199.12207      221.60521      0.5          
   1661000  -820.72287      89.49405       221.26912      0.5          
   1662000  -870.85212      75.756005      219.06064      0.5          
   1663000  -836.43131     -2.7368781      221.13568      0.5          
   1664000  -797.28661      121.41872      221.00013      0.5          
   1665000  -806.77204     -188.46576      221.48314      0.5          
   1666000  -746.98171      48.755215      222.35887      0.5          
   1667000  -856.0538       7.6554356      220.03984      0.5          
   1668000  -742.90568     -98.004475      223.1867       0.5          
   1669000  -787.06415      87.443332      220.04623      0.5          
   1670000  -804.39658     -88.944653      222.20164      0.5          
   1671000  -811.31003     -10.592416      219.31749      0.5          
   1672000  -655.51767      85.323404      222.17234      0.5          
   1673000  -704.97326      14.812795      218.88746      0.5          
   1674000  -751.96906      131.54203      220.63675      0.5          
   1675000  -714.00561     -84.461973      221.76435      0.5          
   1676000  -661.71941     -16.221413      219.9142       0.5          
   1677000  -807.94207      184.3342       218.00913      0.5          
   1678000  -809.67942     -128.03824      216.39414      0.5          
   1679000  -686.45583     -87.728503      222.18905      0.5          
   1680000  -697.14122      145.52562      220.10203      0.5          
   1681000  -728.93142     -72.4225        218.33641      0.5          
   1682000  -705.35703     -87.788033      221.88314      0.5          
   1683000  -733.10669      194.36136      219.36779      0.5          
   1684000  -773.76929     -17.556861      216.01747      0.5          
   1685000  -763.79382      84.708654      218.99623      0.5          
   1686000  -830.49937     -7.3343414      214.27627      0.5          
   1687000  -732.57447     -20.121516      221.87319      0.5          
   1688000  -687.29266      5.1366103      220.23805      0.5          
   1689000  -567.77041      255.59556      221.53249      0.5          
   1690000  -648.90554     -200.78154      221.72531      0.5          
   1691000  -554.12624      130.36992      228.47589      0.5          
   1692000  -746.48933     -126.71322      219.91609      0.5          
   1693000  -756.23272      80.866676      219.93344      0.5          
   1694000  -714.04239      107.9784       219.48664      0.5          
   1695000  -631.19387      61.367165      221.66481      0.5          
   1696000  -790.6748      -19.485248      219.11384      0.5          
   1697000  -746.77458      9.8118293      221.72028      0.5          
   1698000  -692.89638     -7.0414128      223.20027      0.5          
   1699000  -719.11959     -66.01726       219.8655       0.5          
   1700000  -812.89963     -143.52495      218.93874      0.5          
   1701000  -802.00057      122.96107      219.34756      0.5          
   1702000  -696.31772      25.690952      220.09488      0.5          
   1703000  -651.81076      9.6226706      224.85924      0.5          
   1704000  -739.37018      26.084946      220.10568      0.5          
   1705000  -750.54222     -13.987514      219.19687      0.5          
   1706000  -761.44632      115.33629      220.04675      0.5          
   1707000  -826.00175      19.883999      215.86419      0.5          
   1708000  -896.09522     -120.34245      218.62277      0.5          
   1709000  -770.54543      102.68455      217.93903      0.5          
   1710000  -854.13813     -80.844885      218.39937      0.5          
   1711000  -667.95219     -222.55953      223.93454      0.5          
   1712000  -737.26291      50.094439      220.78552      0.5          
   1713000  -859.58222      354.40933      216.36719      0.5          
   1714000  -838.90939     -134.27337      215.9179       0.5          
   1715000  -843.5316      -90.713005      218.29606      0.5          
   1716000  -708.50671     -32.007493      223.64063      0.5          
   1717000  -790.52869     -249.91463      219.3106       0.5          
   1718000  -739.3672       154.69625      219.72112      0.5          
   1719000  -679.93708     -116.12696      221.80014      0.5          
   1720000  -727.54234     -314.60414      219.86515      0.5          
   1721000  -693.57218      145.3113       222.50464      0.5          
   1722000  -802.78068      74.474181      220.63923      0.5          
   1723000  -847.13114     -142.85966      213.57637      0.5          
   1724000  -746.82037     -281.49807      218.80313      0.5          
   1725000  -844.80753     -154.30084      214.42626      0.5          
   1726000  -756.48381     -72.521281      218.84403      0.5          
   1727000  -687.54243     -83.189372      219.00804      0.5          
   1728000  -683.41895     -176.84926      219.36488      0.5          
   1729000  -634.62477     -102.01239      220.83167      0.5          
   1730000  -632.78045      74.69959       220.71493      0.5          
   1731000  -687.11388      101.13883      219.97936      0.5          
   1732000  -769.58769      50.599653      221.15083      0.5          
   1733000  -737.29229      21.619903      217.85687      0.5          
   1734000  -670.11813     -20.84718       222.32417      0.5          
   1735000  -780.26977      70.614171      219.11369      0.5          
   1736000  -725.44261      176.06021      219.46697      0.5          
   1737000  -726.22954     -90.806035      218.45896      0.5          
   1738000  -704.70321     -92.061525      219.21327      0.5          
   1739000  -738.45266     -30.812125      220.93089      0.5          
   1740000  -819.25524      11.450395      220.15148      0.5          
   1741000  -841.73536     -75.13387       218.57446      0.5          
   1742000  -830.79721      19.867297      218.79653      0.5          
   1743000  -791.58057     -35.835323      221.0356       0.5          
   1744000  -760.57606     -17.563586      221.24044      0.5          
   1745000  -790.45671      5.1617565      219.31372      0.5          
   1746000  -676.4757       198.71092      220.13943      0.5          
   1747000  -704.57072     -71.141076      224.22029      0.5          
   1748000  -786.86517     -279.61368      217.49539      0.5          
   1749000  -825.6574      -51.1513        218.00844      0.5          
   1750000  -848.58302     -272.43257      215.93685      0.5          
   1751000  -880.37806     -184.19724      216.13727      0.5          
   1752000  -716.93365     -210.04888      224.44919      0.5          
   1753000  -713.33775     -164.43185      220.08976      0.5          
   1754000  -668.69149      31.931874      220.39708      0.5          
   1755000  -671.17427     -90.358229      221.79506      0.5          
   1756000  -773.27397     -168.46922      220.1618       0.5          
   1757000  -677.45344      203.58406      222.0234       0.5          
   1758000  -721.77777     -136.7715       219.36538      0.5          
   1759000  -758.25864     -89.444299      218.9758       0.5          
   1760000  -715.25055      20.700808      219.83212      0.5          
   1761000  -732.03425     -38.730779      219.83233      0.5          
   1762000  -741.60586      332.25515      219.50725      0.5          
   1763000  -826.72995      189.12121      216.8582       0.5          
   1764000  -667.46231      227.44792      224.64325      0.5          
   1765000  -693.90542     -31.348175      223.44168      0.5          
   1766000  -857.86856     -17.484284      219.1332       0.5          
   1767000  -940.56854      123.95119      219.59719      0.5          
   1768000  -856.34713     -209.51474      216.98237      0.5          
   1769000  -809.21628     -142.34322      219.38032      0.5          
   1770000  -742.11139      52.779539      223.33476      0.5          
   1771000  -748.97327     -36.339426      218.96163      0.5          
   1772000  -751.82675      235.29331      220.80022      0.5          
   1773000  -786.54591      200.51726      219.10139      0.5          
   1774000  -784.0407       110.91439      217.92592      0.5          
   1775000  -735.9672       89.898528      221.91716      0.5          
   1776000  -745.1729       171.29628      220.43242      0.5          
   1777000  -939.91406      223.92158      215.18662      0.5          
   1778000  -731.21538      332.71627      219.21113      0.5          
   1779000  -718.75064      210.04518      219.97798      0.5          
   1780000  -713.20731     -122.9432       219.96115      0.5          
   1781000  -820.1633      -136.97105      220.93195      0.5          
   1782000  -825.10713     -82.259919      218.47664      0.5          
   1783000  -839.32456     -19.988493      217.75022      0.5          
   1784000  -834.70297      204.67131      218.63051      0.5          
   1785000  -728.45129      353.84479      220.29564      0.5          
   1786000  -740.61824     -65.155738      218.57447      0.5          
   1787000  -747.22772     -102.37009      221.10377      0.5          
   1788000  -638.03338      168.7235       223.48479      0.5          
   1789000  -787.32725     -57.23515       216.35879      0.5          
   1790000  -772.98833      74.146707      221.18959      0.5          
   1791000  -646.65014      183.45968      220.82759      0.5          
   1792000  -623.75921     -40.945065      219.88196      0.5          
   1793000  -733.44041     -244.03554      220.84049      0.5          
   1794000  -664.672        397.72307      217.94429      0.5          
   1795000  -605.45526     -5.6175903      220.52691      0.5          
   1796000  -771.5366      -22.895365      218.75007      0.5          
   1797000  -747.34104      358.7064       218.87052      0.5          
   1798000  -640.47117     -121.9792       220.23789      0.5          
   1799000  -673.29944      93.531515      221.72029      0.5          
   1800000  -784.44081     -96.690657      221.95222      0.5          
   1801000  -759.29083     -43.601697      218.84864      0.5          
   1802000  -729.53415     -1.8156533      219.19683      0.5          
   1803000  -712.20104     -26.76999       221.81539      0.5          
   1804000  -694.75489      32.28597       221.99563      0.5          
   1805000  -706.67882     -57.239478      221.43602      0.5          
   1806000  -711.85287     -140.22386      223.61739      0.5          
   1807000  -752.31962     -65.893148      223.48082      0.5          
   1808000  -836.29001      328.54346      218.76872      0.5          
   1809000  -796.51433      299.70241      220.67103      0.5          
   1810000  -832.03954     -135.03402      215.4565       0.5          
   1811000  -734.83343     -94.548862      219.14921      0.5          
   1812000  -744.09698      178.58303      221.72257      0.5          
   1813000  -776.70618      7.5533197      218.63866      0.5          
   1814000  -795.24947      95.630507      218.80502      0.5          
   1815000  -721.94712      128.07126      217.94496      0.5          
   1816000  -844.44337     -66.997661      217.31243      0.5          
   1817000  -824.47954     -186.25516      218.21281      0.5          
   1818000  -669.53027     -144.6638       220.77987      0.5          
   1819000  -755.63909      220.58784      222.15676      0.5          
   1820000  -590.30366      65.736912      224.60387      0.5          
   1821000  -784.8847       98.743484      218.17649      0.5          
   1822000  -693.78646      123.68134      220.27458      0.5          
   1823000  -651.97538     -167.69939      221.03341      0.5          
   1824000  -675.45903     -25.655669      219.43785      0.5          
   1825000  -725.75193     -78.935366      218.48592      0.5          
   1826000  -728.28808     -13.028232      220.47617      0.5          
   1827000  -725.94507      11.909144      219.35677      0.5          
   1828000  -672.67456     -8.5356504      221.81124      0.5          
   1829000  -688.17471     -377.05567      219.55652      0.5          
   1830000  -710.32064      109.4072       220.43318      0.5          
   1831000  -645.75299      139.90786      221.52541      0.5          
   1832000  -869.67432      47.230469      216.00852      0.5          
   1833000  -717.07434     -23.334716      221.1511       0.5          
   1834000  -772.46749     -5.051814       220.27838      0.5          
   1835000  -856.65689     -285.74909      214.51886      0.5          
   1836000  -666.94751     -142.91328      223.99244      0.5          
   1837000  -738.59707      124.42702      221.85038      0.5          
   1838000  -849.66439      209.85796      217.88394      0.5          
   1839000  -841.1638       140.96537      221.21118      0.5          
   1840000  -747.588       -140.57445      220.04177      0.5          
   1841000  -717.44245      205.66583      221.97918      0.5          
   1842000  -868.96301      235.27317      216.33962      0.5          
   1843000  -879.30596      48.62491       219.12209      0.5          
   1844000  -776.27779      43.761741      222.29901      0.5          
   1845000  -673.67096     -58.938857      223.37243      0.5          
   1846000  -802.35052      168.61683      215.9168       0.5          
   1847000  -725.57667     -138.77741      220.75266      0.5          
   1848000  -711.08825     -268.44148      220.21313      0.5          
   1849000  -764.58597      10.694437      221.22838      0.5          
   1850000  -784.85553     -59.373842      218.07953      0.5          
   1851000  -713.93234      21.409793      221.29424      0.5          
   1852000  -733.96043      140.01423      222.5037       0.5          
   1853000  -845.65403     -103.79389      217.25544      0.5          
   1854000  -709.48159     -152.89001      221.08916      0.5          
   1855000  -640.78032      124.79869      222.30886      0.5          
   1856000  -708.23146      180.12058      220.48179      0.5          
   1857000  -656.68904     -138.78711      222.80427      0.5          
   1858000  -653.57306     -129.94443      221.54315      0.5          
   1859000  -744.10097     -61.464923      217.24169      0.5          
   1860000  -735.40602     -177.29249      222.47833      0.5          
   1861000  -676.61104     -102.3162       218.1296       0.5          
   1862000  -617.65531     -2.7846566      221.98162      0.5          
   1863000  -617.24365     -110.67428      223.4182       0.5          
   1864000  -694.48129      27.881642      216.49735      0.5          
   1865000  -641.10825     -230.69997      220.92454      0.5          
   1866000  -586.19813     -76.735527      221.54634      0.5          
   1867000  -685.95817      258.36926      222.37073      0.5          
   1868000  -772.9182      -94.65921       220.75102      0.5          
   1869000  -628.03566      2.6331718      219.74036      0.5          
   1870000  -719.06092     -4.9973953      219.19214      0.5          
   1871000  -590.58665     -18.254588      223.06315      0.5          
   1872000  -664.01187     -61.743292      223.38077      0.5          
   1873000  -800.3495      -119.8667       219.50653      0.5          
   1874000  -804.37012      68.506076      218.40168      0.5          
   1875000  -857.15947      84.310528      217.62229      0.5          
   1876000  -774.39645     -147.80342      219.03867      0.5          
   1877000  -786.17021     -249.12752      219.64842      0.5          
   1878000  -788.92153      52.492709      219.80973      0.5          
   1879000  -679.19683      151.76642      219.94429      0.5          
   1880000  -774.33073      68.967488      218.62382      0.5          
   1881000  -824.33814     -119.50796      221.42621      0.5          
   1882000  -795.37356     -9.1817006      222.05211      0.5          
   1883000  -727.44414      119.58228      221.9778       0.5          
   1884000  -826.70144     -16.993334      216.77472      0.5          
   1885000  -764.17406     -52.076936      219.71833      0.5          
   1886000  -797.43112     -60.235278      220.80298      0.5          
   1887000  -777.83853      23.768559      219.65566      0.5          
   1888000  -768.91536      53.753704      220.71889      0.5          
   1889000  -761.93478     -25.854882      220.29853      0.5          
   1890000  -759.16397      36.49804       221.95485      0.5          
   1891000  -729.3277      -20.24733       222.05683      0.5          
   1892000  -801.45001     -232.8794       219.3533       0.5          
   1893000  -689.53044     -5.1881268      221.09555      0.5          
   1894000  -622.23029      27.471614      222.45816      0.5          
   1895000  -721.43053     -55.186411      219.69757      0.5          
   1896000  -784.75222     -229.72266      220.49147      0.5          
   1897000  -798.89908     -163.7336       218.59981      0.5          
   1898000  -709.82305      39.079695      219.18337      0.5          
   1899000  -762.77305      104.61427      219.27801      0.5          
   1900000  -756.19068      77.028069      218.72679      0.5          
   1901000  -771.63691     -169.69387      219.08842      0.5          
   1902000  -731.12931      99.267845      220.92372      0.5          
   1903000  -688.74718      100.17497      219.61214      0.5          
   1904000  -662.71078     -196.73099      217.21197      0.5          
   1905000  -729.09281     -114.32437      219.6219       0.5          
   1906000  -665.8724       296.73922      223.20111      0.5          
   1907000  -751.83692      12.626342      220.55295      0.5          
   1908000  -744.33692     -253.12501      218.7947       0.5          
   1909000  -687.49893      147.14862      220.37107      0.5          
   1910000  -725.68649     -56.718851      218.48354      0.5          
   1911000  -613.9043      -31.516968      222.14817      0.5          
   1912000  -673.55323      213.63485      217.03287      0.5          
   1913000  -664.64948      8.5292608      219.93459      0.5          
   1914000  -589.44219     -83.980562      223.73178      0.5          
   1915000  -718.33008      11.998158      220.63315      0.5          
   1916000  -702.62415     -2.0295623      221.83326      0.5          
   1917000  -760.81674      15.369537      218.88061      0.5          
   1918000  -780.59259     -188.20098      219.16185      0.5          
   1919000  -744.07214     -86.004281      220.27797      0.5          
   1920000  -814.55345     -75.306866      217.74523      0.5          
   1921000  -802.77463      184.52742      219.04068      0.5          
   1922000  -821.80744      84.003582      216.43157      0.5          
   1923000  -686.42983     -15.949833      220.73169      0.5          
   1924000  -846.02929      141.60452      218.42326      0.5          
   1925000  -683.67261     -12.6607        222.08939      0.5          
   1926000  -672.3723      -245.77826      222.56474      0.5          
   1927000  -714.97082      48.854116      221.19743      0.5          
   1928000  -725.23821      8.2333963      219.27777      0.5          
   1929000  -794.39957     -158.24156      218.45588      0.5          
   1930000  -798.17232      81.076657      218.55457      0.5          
   1931000  -784.32924     -1.9796788      219.19819      0.5          
   1932000  -747.28169     -111.1083       220.43909      0.5          
   1933000  -742.82836     -53.834972      218.61462      0.5          
   1934000  -691.2702       210.04593      223.13901      0.5          
   1935000  -713.45288     -33.31991       221.36586      0.5          
   1936000  -831.26501      128.57693      216.11975      0.5          
   1937000  -769.8503      -287.1008       219.25081      0.5          
   1938000  -833.32688      68.80357       216.72594      0.5          
   1939000  -796.19718      13.511115      219.29242      0.5          
   1940000  -769.98364     -183.34481      217.84189      0.5          
   1941000  -787.72712      96.397105      216.22778      0.5          
   1942000  -724.4638       199.97238      220.52037      0.5          
   1943000  -671.82158     -136.99539      222.45165      0.5          
   1944000  -685.7639       135.81648      220.06514      0.5          
   1945000  -657.77966     -74.778356      219.58345      0.5          
   1946000  -718.09707     -77.111304      219.78172      0.5          
   1947000  -788.62181      75.224167      218.54554      0.5          
   1948000  -768.91244     -62.52925       219.4107       0.5          
   1949000  -766.841        89.737316      220.77518      0.5          
   1950000  -741.95243     -142.27653      220.93232      0.5          
   1951000  -774.78062      38.830532      216.49797      0.5          
   1952000  -755.69297     -80.432459      221.67098      0.5          
   1953000  -782.66688     -43.107163      220.95662      0.5          
   1954000  -677.37927      136.62659      222.42407      0.5          
   1955000  -775.00964      5.5569871      216.31277      0.5          
   1956000  -788.91596      31.057361      217.65448      0.5          
   1957000  -820.43536      158.35759      216.92655      0.5          
   1958000  -827.48598      104.4984       218.96016      0.5          
   1959000  -803.86355      204.45159      219.4597       0.5          
   1960000  -780.92018      322.74368      219.57019      0.5          
   1961000  -699.43267      20.467692      220.53993      0.5          
   1962000  -833.76212     -143.76152      220.68591      0.5          
   1963000  -817.56713      114.70452      217.6228       0.5          
   1964000  -719.74355     -193.12452      222.11701      0.5          
   1965000  -757.13026     -378.47423      219.85864      0.5          
   1966000  -715.77787      10.634457      219.90485      0.5          
   1967000  -671.22198      169.17412      223.91884      0.5          
   1968000  -730.64199     -118.97684      220.02384      0.5          
   1969000  -747.22756     -158.9062       219.88946      0.5          
   1970000  -656.9593       43.973794      220.78542      0.5          
   1971000  -755.38552     -30.598214      219.35767      0.5          
   1972000  -763.87176      52.090812      219.95637      0.5          
   1973000  -705.37212     -85.183414      221.70943      0.5          
   1974000  -703.44921     -48.913428      219.40817      0.5          
   1975000  -731.34279     -145.62846      221.38304      0.5          
   1976000  -608.08763     -322.26981      223.38314      0.5          
   1977000  -647.04467     -109.22357      220.70298      0.5          
   1978000  -624.08681     -76.826569      223.92459      0.5          
   1979000  -710.60304     -64.668785      220.18921      0.5          
   1980000  -650.08686      147.45396      222.42545      0.5          
   1981000  -674.00624      147.26377      221.97582      0.5          
   1982000  -698.22657     -205.38973      219.0666       0.5          
   1983000  -692.42419     -15.938102      221.81933      0.5          
   1984000  -648.23966     -60.504232      223.81138      0.5          
   1985000  -743.10822      66.626812      220.38387      0.5          
   1986000  -661.5348       0.83877796     222.80297      0.5          
   1987000  -799.46281     -210.73936      217.76858      0.5          
   1988000  -645.10285      46.024775      224.9742       0.5          
   1989000  -748.32438     -64.185379      218.29679      0.5          
   1990000  -796.06528     -42.116743      215.72275      0.5          
   1991000  -605.51819      146.92381      220.57581      0.5          
   1992000  -707.43844     -249.03979      219.72455      0.5          
   1993000  -623.22344     -167.88132      221.25534      0.5          
   1994000  -616.711       -19.6799        222.11366      0.5          
   1995000  -672.87611     -188.32426      219.08058      0.5          
   1996000  -668.78441     -30.196526      221.61667      0.5          
   1997000  -791.60623     -0.50220516     217.80089      0.5          
   1998000  -777.83369      233.07767      216.34432      0.5          
   1999000  -705.21764      8.6868991      220.5485       0.5          
   2000000  -696.27813     -17.671375      219.46476      0.5          
Loop time of 14101.5 on 16 procs for 2000000 steps with 7050 atoms

Performance: 6.127 ns/day, 3.917 hours/ns, 141.829 timesteps/s, 999.896 katom-step/s
99.4% CPU use with 16 MPI tasks x 1 OpenMP threads

MPI task timing breakdown:
Section |  min time  |  avg time  |  max time  |%varavg| %total
---------------------------------------------------------------
Pair    | 62.522     | 5435.6     | 11599      |7287.0 | 38.55
Bond    | 3.5677     | 24.735     | 49.337     | 423.3 |  0.18
Kspace  | 1898       | 7939.8     | 13206      |5891.1 | 56.30
Neigh   | 97.287     | 97.559     | 97.886     |   1.8 |  0.69
Comm    | 309.92     | 403.48     | 528.05     | 406.9 |  2.86
Output  | 0.21463    | 0.29173    | 1.3865     |  52.3 |  0.00
Modify  | 112.63     | 184.48     | 268.24     | 484.5 |  1.31
Other   |            | 15.59      |            |       |  0.11

Nlocal:        440.625 ave         932 max           3 min
Histogram: 8 0 0 0 0 0 0 0 3 5
Nghost:        3994.56 ave        8285 max          75 min
Histogram: 8 0 0 0 0 0 0 0 0 8
Neighs:         193743 ave      445811 max          17 min
Histogram: 8 0 0 0 0 0 0 2 3 3

Total # of neighbors = 3099890
Ave neighs/atom = 439.70071
Ave special neighs/atom = 2
Neighbor list builds = 8451
Dangerous builds = 0

unfix           NVT
run             ${Nnvt}
run             2000000
PPPM initialization ...
  using 12-bit tables for long-range coulomb (src/kspace.cpp:342)
  G vector (1/distance) = 0.20169663
  grid = 24 24 80
  stencil order = 5
  estimated absolute RMS force accuracy = 0.00286774
  estimated relative force accuracy = 8.6361139e-06
  using single precision FFTW3
  3d grid and FFT values/proc = 14440 4896
Generated 1 of 1 mixed pair_coeff terms from arithmetic mixing rule
Last active /omp style is kspace_style pppm/omp
Per MPI rank memory allocation (min/avg/max) = 9.456 | 9.946 | 10.21 Mbytes
   Step         TotEng         Press           Temp            Dt      
   2000000  -696.27814     -17.671375      219.46476      0.5          
   2001000  -696.04653      88.980848      221.99465      0.5          
   2002000  -695.70564     -181.45196      221.46003      0.5          
   2003000  -695.64513      72.451726      220.59446      0.5          
   2004000  -695.98599      252.36902      219.84145      0.5          
   2005000  -696.03455     -34.965237      219.49765      0.5          
   2006000  -696.12469      3.4215556      221.87171      0.5          
   2007000  -696.35677     -50.521337      220.42326      0.5          
   2008000  -696.224        7.235891       219.96232      0.5          
   2009000  -696.14579     -125.57516      217.35135      0.5          
   2010000  -696.54657     -130.58991      220.55383      0.5          
   2011000  -696.43813     -15.814435      219.66895      0.5          
   2012000  -696.27712     -29.162848      217.82779      0.5          
   2013000  -696.50524      191.62443      219.57571      0.5          
   2014000  -696.2649       112.47669      217.52132      0.5          
   2015000  -696.45197     -212.43111      216.97838      0.5          
   2016000  -696.25186     -181.40145      219.09654      0.5          
   2017000  -696.46586      23.804401      217.02803      0.5          
   2018000  -696.2344       134.32486      218.59995      0.5          
   2019000  -695.97697     -70.93132       221.37697      0.5          
   2020000  -696.12769     -204.1449       221.16471      0.5          
   2021000  -696.2962       59.414195      221.02404      0.5          
   2022000  -696.03035      265.64895      223.56952      0.5          
   2023000  -696.18369     -325.29123      222.06674      0.5          
   2024000  -695.89306     -126.32542      222.29447      0.5          
   2025000  -696.16946      4.8361598      222.05267      0.5          
   2026000  -696.14895      1.300844       223.02412      0.5          
   2027000  -696.30445      113.03259      224.21875      0.5          
   2028000  -696.18443     -171.37982      223.7188       0.5          
   2029000  -696.19895     -261.8081       221.88261      0.5          
   2030000  -696.43977      177.94622      223.43183      0.5          
   2031000  -696.39605      394.17793      224.00046      0.5          
   2032000  -696.24242     -50.733395      219.20667      0.5          
   2033000  -696.48867      176.58745      223.41038      0.5          
   2034000  -696.2163       23.924786      219.97961      0.5          
   2035000  -696.57947     -36.696394      222.98099      0.5          
   2036000  -696.59127      19.639268      223.68571      0.5          
   2037000  -696.61432     -188.49438      221.42095      0.5          
   2038000  -696.23129      121.47198      221.61739      0.5          
   2039000  -696.45488     -42.484422      220.68041      0.5          
   2040000  -696.58625     -148.93902      221.48849      0.5          
   2041000  -696.49281     -27.725389      220.52009      0.5          
   2042000  -695.87019      23.916605      218.1663       0.5          
   2043000  -696.12175      29.048251      220.39175      0.5          
   2044000  -696.39422      155.79069      220.77843      0.5          
   2045000  -696.2198      -66.192595      221.1402       0.5          
   2046000  -696.25972     -122.95228      223.02977      0.5          
   2047000  -696.25332      102.61844      220.48856      0.5          
   2048000  -696.4564      -61.773659      221.29831      0.5          
   2049000  -696.4847      -164.90055      220.36005      0.5          
   2050000  -696.74222      253.99802      219.80504      0.5          
   2051000  -696.60327      108.98341      223.14255      0.5          
   2052000  -696.48222     -276.91484      220.04849      0.5          
   2053000  -696.55728     -104.06641      218.91287      0.5          
   2054000  -696.76465      28.384577      220.30086      0.5          
   2055000  -696.61303      73.130877      221.44067      0.5          
   2056000  -696.564        1.8997995      221.04242      0.5          
   2057000  -696.51987      192.40958      222.57681      0.5          
   2058000  -696.52954     -269.70208      222.06386      0.5          
   2059000  -696.57783     -291.01215      225.07515      0.5          
   2060000  -696.40153      200.95637      221.90972      0.5          
   2061000  -696.27471      189.43891      221.65421      0.5          
   2062000  -696.23112     -91.519664      222.22449      0.5          
   2063000  -696.40977      3.3053337      221.52899      0.5          
   2064000  -696.63109      153.11698      224.81146      0.5          
   2065000  -696.28815      13.794093      222.62483      0.5          
   2066000  -696.54348     -14.862402      224.04895      0.5          
   2067000  -696.22171     -87.162794      220.21796      0.5          
   2068000  -696.66914      104.16609      220.78148      0.5          
   2069000  -696.81846      35.217393      220.89453      0.5          
   2070000  -696.56168      12.932128      221.44602      0.5          
   2071000  -696.70052     -14.157776      221.59882      0.5          
   2072000  -696.45986     -85.869231      218.41879      0.5          
   2073000  -696.81427      18.439202      219.30226      0.5          
   2074000  -696.68469      126.23282      222.89173      0.5          
   2075000  -696.66696     -110.13146      220.00349      0.5          
   2076000  -696.41626      183.27734      218.68769      0.5          
   2077000  -696.39331      266.3637       218.91089      0.5          
   2078000  -696.52762      102.32089      220.20256      0.5          
   2079000  -696.25154     -90.03007       220.62587      0.5          
   2080000  -696.37576     -225.79366      219.02938      0.5          
   2081000  -696.58099      77.735816      219.74282      0.5          
   2082000  -696.40206      75.350641      220.09858      0.5          
   2083000  -696.16107     -91.830435      219.37426      0.5          
   2084000  -695.9554      -12.03761       221.93749      0.5          
   2085000  -695.91657     -93.425889      222.82349      0.5          
   2086000  -695.92027     -69.30026       222.18363      0.5          
   2087000  -695.73859     -26.078308      221.93809      0.5          
   2088000  -695.59779     -125.25447      222.41468      0.5          
   2089000  -695.65886      163.2118       220.35931      0.5          
   2090000  -695.73598      233.28389      222.70582      0.5          
   2091000  -695.65056     -42.742079      223.30125      0.5          
   2092000  -695.61685     -54.23842       225.45628      0.5          
   2093000  -695.48289      164.74438      220.16304      0.5          
   2094000  -695.66019     -203.13489      220.5475       0.5          
   2095000  -695.46807     -116.20054      220.10442      0.5          
   2096000  -695.63742      89.224672      222.42967      0.5          
   2097000  -695.42463     -163.70554      221.61152      0.5          
   2098000  -695.33484     -192.76909      219.15729      0.5          
   2099000  -695.32036      169.90596      220.71049      0.5          
   2100000  -695.41133      86.959887      218.6472       0.5          
   2101000  -695.72853     -207.20126      220.70823      0.5          
   2102000  -695.66215     -89.80256       217.60179      0.5          
   2103000  -695.55081     -115.43042      219.68979      0.5          
   2104000  -695.55885     -89.841322      219.70053      0.5          
   2105000  -695.54826     -43.520483      217.24125      0.5          
   2106000  -695.30666      148.28028      216.92575      0.5          
   2107000  -695.28583      30.870038      219.01762      0.5          
   2108000  -695.66616     -178.81035      218.31902      0.5          
   2109000  -695.56         53.342999      216.67325      0.5          
   2110000  -695.36115      97.683897      220.9922       0.5          
   2111000  -695.04864     -61.73681       219.16241      0.5          
   2112000  -695.65519     -246.99867      218.25618      0.5          
   2113000  -695.90217     -55.1478        219.34236      0.5          
   2114000  -695.8355      -192.92111      217.29636      0.5          
   2115000  -695.66651      82.294993      219.97874      0.5          
   2116000  -695.79218      99.137966      219.57652      0.5          
   2117000  -695.83832      85.697879      219.97997      0.5          
   2118000  -695.85592      7.3566005      217.59321      0.5          
   2119000  -695.8438       31.756606      220.78595      0.5          
   2120000  -695.74308     -3.3234098      218.67539      0.5          
   2121000  -696.05194     -134.67625      220.21423      0.5          
   2122000  -696.24765      78.497877      220.8563       0.5          
   2123000  -696.15119      0.18331663     221.54415      0.5          
   2124000  -696.05857      92.827585      221.98776      0.5          
   2125000  -695.82865      287.38165      220.95054      0.5          
   2126000  -696.33093      97.553781      221.03104      0.5          
   2127000  -696.23405     -119.59294      222.03156      0.5          
   2128000  -696.04379     -73.986145      222.1894       0.5          
   2129000  -696.16615      165.23125      225.91695      0.5          
   2130000  -696.13182     -37.642093      219.75723      0.5          
   2131000  -696.18017      119.65862      221.15105      0.5          
   2132000  -695.93422      143.39891      220.72298      0.5          
   2133000  -695.73867     -13.804561      219.449        0.5          
   2134000  -695.96053      56.768746      218.67815      0.5          
   2135000  -696.05719     -33.787734      219.75286      0.5          
   2136000  -696.05613     -199.1596       220.52206      0.5          
   2137000  -695.85667     -74.986988      218.36908      0.5          
   2138000  -695.74415      106.45912      217.30578      0.5          
   2139000  -695.71218     -93.343646      218.70126      0.5          
   2140000  -696.07269     -11.382495      219.3999       0.5          
   2141000  -695.93508      276.82285      220.20655      0.5          
   2142000  -695.6347       56.92415       218.2594       0.5          
   2143000  -695.62145      130.13097      219.40363      0.5          
   2144000  -695.89185      201.68267      218.36721      0.5          
   2145000  -695.89232     -74.77427       224.59437      0.5          
   2146000  -695.74541     -16.243053      221.47329      0.5          
   2147000  -695.62899      62.112965      224.02078      0.5          
   2148000  -695.57701     -148.32423      222.51021      0.5          
   2149000  -695.63204      124.91537      219.60605      0.5          
   2150000  -695.5791       2.5237191      222.17759      0.5          
   2151000  -695.60131     -51.157111      221.92592      0.5          
   2152000  -695.38069      342.16626      224.43622      0.5          
   2153000  -695.24966     -33.776991      222.36945      0.5          
   2154000  -695.38652     -210.20566      220.27311      0.5          
   2155000  -695.51744     -132.75476      222.12658      0.5          
   2156000  -695.43619      243.35076      219.48368      0.5          
   2157000  -695.84279      192.23006      220.47163      0.5          
   2158000  -695.69319     -39.939566      220.39195      0.5          
   2159000  -695.08087      85.038984      218.9606       0.5          
   2160000  -695.38067      16.787946      219.45727      0.5          
   2161000  -695.68244     -170.50801      219.92809      0.5          
   2162000  -695.47111      178.21643      219.99534      0.5          
   2163000  -695.25534      16.791713      221.69807      0.5          
   2164000  -695.13045      150.2098       222.02405      0.5          
   2165000  -695.54698      95.793729      220.24496      0.5          
   2166000  -695.84394     -25.440976      221.73042      0.5          
   2167000  -695.50281     -251.71885      221.36563      0.5          
   2168000  -695.29026     -200.01569      217.82691      0.5          
   2169000  -695.52992      107.22055      218.6102       0.5          
   2170000  -695.57916     -159.8404       215.66954      0.5          
   2171000  -695.68274     -126.54435      218.64783      0.5          
   2172000  -695.6885       65.721302      218.13728      0.5          
   2173000  -695.55268     -59.89067       217.09586      0.5          
   2174000  -695.79502     -109.63359      220.31834      0.5          
   2175000  -695.60272      46.63993       217.11425      0.5          
   2176000  -695.69001     -214.25289      217.07368      0.5          
   2177000  -695.90015     -54.223695      219.51396      0.5          
   2178000  -695.9045       192.36412      217.60302      0.5          
   2179000  -696.07751      44.352079      219.44953      0.5          
   2180000  -695.91191     -240.94954      219.2144       0.5          
   2181000  -696.03633      126.08796      218.64964      0.5          
   2182000  -696.47066     -14.6085        220.91544      0.5          
   2183000  -696.42475     -59.474834      219.82896      0.5          
   2184000  -696.1072       59.864007      220.7845       0.5          
   2185000  -696.19541     -212.52253      219.54687      0.5          
   2186000  -696.21133     -201.04196      219.27909      0.5          
   2187000  -696.14327      126.06234      219.37844      0.5          
   2188000  -696.11544      200.08811      218.18025      0.5          
   2189000  -696.49296      120.07457      220.4033       0.5          
   2190000  -696.28556     -66.333523      222.71488      0.5          
   2191000  -695.8328       22.423714      220.9999       0.5          
   2192000  -695.81238      324.53615      219.28177      0.5          
   2193000  -696.29901     -185.12287      222.38859      0.5          
   2194000  -695.86988     -140.94762      220.64974      0.5          
   2195000  -696.15299      306.6466       220.14437      0.5          
   2196000  -696.09582     -70.965628      218.54799      0.5          
   2197000  -696.10461     -279.77085      222.04402      0.5          
   2198000  -695.91775      14.881318      220.25451      0.5          
   2199000  -696.00253      145.51702      219.19308      0.5          
   2200000  -696.14255      92.424013      217.23639      0.5          
   2201000  -696.04149     -123.93169      218.5502       0.5          
   2202000  -696.28322      22.320832      222.60669      0.5          
   2203000  -696.4128       58.776588      223.64826      0.5          
   2204000  -696.18658     -128.55729      219.70622      0.5          
   2205000  -695.85919      6.4794888      219.25172      0.5          
   2206000  -695.88864      23.446509      219.84952      0.5          
   2207000  -696.20926     -120.24902      221.1419       0.5          
   2208000  -696.12077      95.85881       219.42744      0.5          
   2209000  -695.91665     -115.91361      218.66697      0.5          
   2210000  -696.05964      107.16958      221.14303      0.5          
   2211000  -696.15796      155.54296      220.41604      0.5          
   2212000  -696.25367     -42.693725      217.86496      0.5          
   2213000  -696.07346      94.356139      218.2953       0.5          
   2214000  -696.15747      196.26647      216.23194      0.5          
   2215000  -696.092        46.274252      221.60854      0.5          
   2216000  -696.33872     -147.16769      220.92807      0.5          
   2217000  -696.31371      79.526259      220.31787      0.5          
   2218000  -695.59044     -67.154599      216.9295       0.5          
   2219000  -696.1058       37.537468      221.30908      0.5          
   2220000  -696.28969     -17.16989       223.25548      0.5          
   2221000  -696.20595     -247.24928      223.54944      0.5          
   2222000  -695.91351      162.92457      220.94079      0.5          
   2223000  -695.98496      140.43676      221.268        0.5          
   2224000  -696.36561      85.142643      225.40064      0.5          
   2225000  -696.47077     -177.3827       222.41658      0.5          
   2226000  -696.04579     -181.36791      221.14822      0.5          
   2227000  -695.80134      102.99464      219.95954      0.5          
   2228000  -696.09671      100.19321      218.24359      0.5          
   2229000  -696.40729     -162.70765      222.39362      0.5          
   2230000  -696.16638      81.263067      219.5365       0.5          
   2231000  -695.80315      193.86192      219.26902      0.5          
   2232000  -695.47905     -331.4947       216.43871      0.5          
   2233000  -695.93391     -109.91778      219.1662       0.5          
   2234000  -695.88979      111.67318      217.66482      0.5          
   2235000  -695.81224     -119.4538       218.82669      0.5          
   2236000  -695.51025     -320.08045      215.45244      0.5          
   2237000  -695.63582      34.445205      218.86741      0.5          
   2238000  -695.82426      84.809586      220.73932      0.5          
   2239000  -695.76695     -139.64182      218.78906      0.5          
   2240000  -695.56589     -119.79708      218.91188      0.5          
   2241000  -695.57871     -7.5606952      218.39327      0.5          
   2242000  -696.02807     -19.913802      218.92288      0.5          
   2243000  -695.81509      74.945412      219.19691      0.5          
   2244000  -695.47849     -71.936867      218.91282      0.5          
   2245000  -695.28367     -314.04729      213.94948      0.5          
   2246000  -695.08465      166.03458      218.34327      0.5          
   2247000  -695.33144      127.1884       218.74794      0.5          
   2248000  -695.36794     -189.34703      219.05673      0.5          
   2249000  -695.33378      52.100102      220.31857      0.5          
   2250000  -695.30099     -35.402521      218.20842      0.5          
   2251000  -695.31653      53.286214      221.75231      0.5          
   2252000  -695.5374       194.36275      221.84836      0.5          
   2253000  -695.49702     -125.93316      220.02567      0.5          
   2254000  -695.12329     -191.15989      220.3002       0.5          
   2255000  -695.31461      9.2982037      223.17572      0.5          
   2256000  -695.33428     -147.91263      223.98308      0.5          
   2257000  -695.30739      63.047474      220.07495      0.5          
   2258000  -695.42027      183.20189      220.22011      0.5          
   2259000  -695.02405      46.222619      220.12614      0.5          
   2260000  -694.812        246.22622      220.10041      0.5          
   2261000  -694.98173     -20.829624      218.95455      0.5          
   2262000  -695.33204     -107.81842      220.63746      0.5          
   2263000  -695.35927     -9.2251         220.80262      0.5          
   2264000  -694.98266      194.30127      216.63334      0.5          
   2265000  -695.03738      4.3557435      219.4288       0.5          
   2266000  -695.04735     -58.570442      218.55158      0.5          
   2267000  -695.27867     -200.17998      221.47267      0.5          
   2268000  -695.23717     -205.93412      218.62761      0.5          
   2269000  -695.30782     -20.762561      216.9578       0.5          
   2270000  -695.32815     -160.51747      217.04819      0.5          
   2271000  -695.41501     -240.22328      218.85558      0.5          
   2272000  -695.36957      233.9674       220.1791       0.5          
   2273000  -695.2169      -12.486121      218.79758      0.5          
   2274000  -695.2762      -98.712097      218.17879      0.5          
   2275000  -695.13612     -80.06418       218.8364       0.5          
   2276000  -695.18637      203.91293      219.43329      0.5          
   2277000  -695.66551      44.523473      219.44091      0.5          
   2278000  -695.16408     -180.92294      218.16084      0.5          
   2279000  -694.87457      13.991128      218.13817      0.5          
   2280000  -694.90972     -59.593308      218.71281      0.5          
   2281000  -695.00158     -68.505946      221.56984      0.5          
   2282000  -694.80697     -93.195483      220.70142      0.5          
   2283000  -694.8246       252.44577      224.13632      0.5          
   2284000  -694.54985     -44.129633      219.69795      0.5          
   2285000  -694.94875     -318.74628      221.85062      0.5          
   2286000  -695.04966     -63.56867       219.61155      0.5          
   2287000  -694.8185       256.2218       221.68071      0.5          
   2288000  -694.79791     -85.93064       220.02292      0.5          
   2289000  -694.66634      78.831189      220.48739      0.5          
   2290000  -694.89407      99.563946      221.7584       0.5          
   2291000  -694.90222     -152.82034      220.04845      0.5          
   2292000  -694.81017      61.199074      220.79789      0.5          
   2293000  -694.74603      8.1929041      219.31756      0.5          
   2294000  -694.73389     -134.30375      219.45513      0.5          
   2295000  -694.896        119.61519      221.17787      0.5          
   2296000  -694.65322      28.14613       218.61147      0.5          
   2297000  -695.03746     -130.9146       218.50449      0.5          
   2298000  -694.82543     -338.37973      219.25454      0.5          
   2299000  -694.92936      169.95175      219.43802      0.5          
   2300000  -694.74628      67.177251      215.99874      0.5          
   2301000  -694.93079     -189.39039      217.97375      0.5          
   2302000  -694.89158     -133.215        220.23354      0.5          
   2303000  -694.68445     -24.093038      219.1006       0.5          
   2304000  -694.4258       168.97991      217.0156       0.5          
   2305000  -694.94919     -216.48807      220.83924      0.5          
   2306000  -695.18593     -270.27005      220.99081      0.5          
   2307000  -695.05711      69.281198      219.17657      0.5          
   2308000  -694.86635      65.454328      217.21437      0.5          
   2309000  -694.65095      3.6790088      217.48525      0.5          
   2310000  -694.627       -41.443858      218.56286      0.5          
   2311000  -694.99862     -17.618168      219.8326       0.5          
   2312000  -694.92074     -120.0747       220.96012      0.5          
   2313000  -694.4636      -73.502026      220.63838      0.5          
   2314000  -694.63474      171.63997      219.37535      0.5          
   2315000  -694.81393      248.07649      219.97329      0.5          
   2316000  -695.06145     -251.95724      221.3749       0.5          
   2317000  -694.73052     -218.3595       217.78116      0.5          
   2318000  -694.60848      147.43695      220.425        0.5          
   2319000  -694.71781     -434.6648       221.0755       0.5          
   2320000  -694.9552      -69.413443      223.32173      0.5          
   2321000  -694.62733      108.2001       221.23352      0.5          
   2322000  -694.37399     -98.790746      222.85061      0.5          
   2323000  -694.60164      72.548651      218.98162      0.5          
   2324000  -694.88368     -101.22438      221.82941      0.5          
   2325000  -694.5814      -239.69557      223.39205      0.5          
   2326000  -694.47594      20.624552      221.63829      0.5          
   2327000  -694.26965     -70.415121      218.74565      0.5          
   2328000  -694.85627     -122.72502      219.83945      0.5          
   2329000  -694.83093     -14.807775      222.55902      0.5          
   2330000  -694.05969      41.728764      217.78361      0.5          
   2331000  -694.08374     -83.349904      216.83973      0.5          
   2332000  -694.22797      21.685105      220.19991      0.5          
   2333000  -694.7024       16.491438      222.43679      0.5          
   2334000  -694.47586     -335.71618      220.84258      0.5          
   2335000  -694.15824      63.520264      220.08251      0.5          
   2336000  -694.29893      207.93174      217.2325       0.5          
   2337000  -694.48912     -56.242642      217.61372      0.5          
   2338000  -694.4134      -72.188157      217.94616      0.5          
   2339000  -694.08902     -56.28237       219.19431      0.5          
   2340000  -693.98654      124.25481      218.45138      0.5          
   2341000  -694.42215      212.39941      219.49446      0.5          
   2342000  -694.52908      96.515308      221.906        0.5          
   2343000  -694.44554     -265.97152      222.49983      0.5          
   2344000  -694.14275      54.446123      218.79095      0.5          
   2345000  -694.13003      110.44919      221.99564      0.5          
   2346000  -694.12628     -177.9223       222.55251      0.5          
   2347000  -693.83428     -46.899202      219.87552      0.5          
   2348000  -693.85275      102.78153      221.0937       0.5          
   2349000  -693.77783     -186.99099      220.83187      0.5          
   2350000  -693.9453       96.045524      223.05052      0.5          
   2351000  -693.81256     -84.314021      220.91555      0.5          
   2352000  -693.58501     -76.212454      223.77666      0.5          
   2353000  -693.61837     -113.32642      221.80672      0.5          
   2354000  -693.70466      50.051142      221.99215      0.5          
   2355000  -693.4468       111.27908      221.39554      0.5          
   2356000  -693.52699     -116.03642      221.31873      0.5          
   2357000  -693.43686     -267.48198      219.5718       0.5          
   2358000  -693.55271      198.29733      221.67903      0.5          
   2359000  -693.64196      20.46703       221.7418       0.5          
   2360000  -693.65823      2.8089516      218.93994      0.5          
   2361000  -693.58933      163.71305      220.37146      0.5          
   2362000  -693.69453     -53.23259       219.57633      0.5          
   2363000  -693.62121     -6.6648002      218.11396      0.5          
   2364000  -693.48999      107.69362      218.18835      0.5          
   2365000  -693.63309     -94.58936       217.26117      0.5          
   2366000  -693.84047      125.33164      221.50718      0.5          
   2367000  -693.76666     -79.343892      218.79717      0.5          
   2368000  -693.70432     -101.12563      215.44839      0.5          
   2369000  -694.14915      107.39269      220.20647      0.5          
   2370000  -694.33297     -40.088973      220.93676      0.5          
   2371000  -694.10394     -73.133671      219.35463      0.5          
   2372000  -694.04115      6.9036588      216.50941      0.5          
   2373000  -694.2484      -49.601585      219.73906      0.5          
   2374000  -694.18756     -203.97948      218.67157      0.5          
   2375000  -694.25614      21.197077      218.83113      0.5          
   2376000  -694.13233     -175.38922      220.72342      0.5          
   2377000  -693.78395      51.830668      219.28868      0.5          
   2378000  -694.14872      312.56513      218.50235      0.5          
   2379000  -694.31355      293.82059      218.57953      0.5          
   2380000  -694.513       -133.14397      217.68413      0.5          
   2381000  -694.66        -60.456937      218.85203      0.5          
   2382000  -694.25043      190.5842       219.27381      0.5          
   2383000  -694.55214     -12.9487        220.75836      0.5          
   2384000  -694.5572      -52.513859      220.79354      0.5          
   2385000  -694.56019      52.35715       220.21643      0.5          
   2386000  -694.3636       159.87729      220.45636      0.5          
   2387000  -694.35279     -173.99752      218.60927      0.5          
   2388000  -694.50158      23.824984      220.11492      0.5          
   2389000  -694.79995      151.73145      220.85613      0.5          
   2390000  -694.68116     -64.083447      220.55106      0.5          
   2391000  -694.35274      171.98771      219.77415      0.5          
   2392000  -694.3883       20.750535      219.69074      0.5          
   2393000  -694.87612     -212.76961      221.85408      0.5          
   2394000  -694.90964      348.48485      219.78262      0.5          
   2395000  -694.64788      79.321986      218.74863      0.5          
   2396000  -694.61626     -216.45132      221.66785      0.5          
   2397000  -694.70012      55.99759       220.77672      0.5          
   2398000  -694.90115     -101.27673      220.87104      0.5          
   2399000  -694.74403      108.92544      218.1355       0.5          
   2400000  -694.81322     -76.425134      219.50816      0.5          
   2401000  -694.75995     -151.403        218.95166      0.5          
   2402000  -694.70581      272.58783      221.208        0.5          
   2403000  -694.62978     -263.45091      219.38235      0.5          
   2404000  -694.50688      58.812234      221.47355      0.5          
   2405000  -694.58704      203.39264      219.25568      0.5          
   2406000  -694.38106      1.5197337      220.13033      0.5          
   2407000  -693.9589       93.214392      219.17239      0.5          
   2408000  -694.20646     -75.071184      221.8043       0.5          
   2409000  -694.13029     -30.937209      221.16408      0.5          
   2410000  -694.34632      27.324125      219.73199      0.5          
   2411000  -694.17792     -151.50862      217.93729      0.5          
   2412000  -694.16558      177.28755      223.48203      0.5          
   2413000  -694.09965     -142.38704      219.6887       0.5          
   2414000  -694.10664     -73.460769      217.88216      0.5          
   2415000  -693.97036      54.929279      221.65982      0.5          
   2416000  -694.36854      137.66734      220.36609      0.5          
   2417000  -693.87774      75.060387      219.74513      0.5          
   2418000  -693.66037      23.812005      216.97151      0.5          
   2419000  -693.93574     -134.89874      218.93872      0.5          
   2420000  -694.33102     -356.23429      220.90564      0.5          
   2421000  -693.99074     -165.0471       221.48227      0.5          
   2422000  -693.60258      116.5558       219.55706      0.5          
   2423000  -693.73719      11.535369      219.38378      0.5          
   2424000  -694.22055      45.238808      221.29676      0.5          
   2425000  -693.76707      9.4253113      219.77615      0.5          
   2426000  -693.52848     -27.204253      216.65171      0.5          
   2427000  -693.82348     -309.62994      218.34957      0.5          
   2428000  -693.86153     -45.981288      217.44711      0.5          
   2429000  -693.91998      37.247053      221.62593      0.5          
   2430000  -693.50687     -22.086215      220.55029      0.5          
   2431000  -693.44105      27.630256      219.49256      0.5          
   2432000  -693.80975     -0.93803193     221.42682      0.5          
   2433000  -693.9124      -50.75487       220.85028      0.5          
   2434000  -694.05308      156.0773       218.32724      0.5          
   2435000  -693.90483      42.076834      219.6886       0.5          
   2436000  -693.74165     -14.345044      220.05091      0.5          
   2437000  -693.99206      4.7969097      219.87374      0.5          
   2438000  -693.99049      41.901583      219.90011      0.5          
   2439000  -693.84847      25.976189      218.13578      0.5          
   2440000  -694.02153     -232.28131      220.92449      0.5          
   2441000  -693.79673      91.973206      220.49545      0.5          
   2442000  -694.1451       56.473606      221.08252      0.5          
   2443000  -693.81124     -331.63882      219.28271      0.5          
   2444000  -693.74125      108.39567      217.77322      0.5          
   2445000  -693.66667      63.291059      220.11946      0.5          
   2446000  -693.69581      31.988831      220.56678      0.5          
   2447000  -693.60968      123.59789      218.9255       0.5          
   2448000  -693.63251     -157.73844      219.83092      0.5          
   2449000  -693.54613      177.5622       217.92048      0.5          
   2450000  -693.65866      194.32942      220.67763      0.5          
   2451000  -693.57045     -39.69298       217.84589      0.5          
   2452000  -693.44798      12.364956      220.78324      0.5          
   2453000  -693.62907     -90.596571      215.9865       0.5          
   2454000  -693.93648      79.058482      221.17461      0.5          
   2455000  -693.705       -168.65622      221.18945      0.5          
   2456000  -693.51703     -77.699882      218.08636      0.5          
   2457000  -693.67419      147.67196      221.2289       0.5          
   2458000  -693.82458     -27.441727      219.32281      0.5          
   2459000  -694.06643     -31.323209      219.02628      0.5          
   2460000  -693.78216      129.32001      218.53316      0.5          
   2461000  -693.78049     -84.151499      219.31436      0.5          
   2462000  -693.76506      29.072665      221.75771      0.5          
   2463000  -693.96781     -110.14323      218.08965      0.5          
   2464000  -694.1241      -92.456429      220.00667      0.5          
   2465000  -694.11419      367.21238      219.07068      0.5          
   2466000  -693.94076     -151.96599      219.55628      0.5          
   2467000  -694.02381     -452.7184       220.83551      0.5          
   2468000  -693.73073      256.3268       217.51557      0.5          
   2469000  -693.73543      272.47731      217.90671      0.5          
   2470000  -693.79207     -286.13721      216.38535      0.5          
   2471000  -693.85306     -104.2667       219.05439      0.5          
   2472000  -693.81742     -229.18654      218.36352      0.5          
   2473000  -693.89979     -60.52721       218.43965      0.5          
   2474000  -693.71593      210.2481       215.25273      0.5          
   2475000  -693.72354      197.8977       219.10563      0.5          
   2476000  -694.21085     -263.53316      221.56455      0.5          
   2477000  -694.43533      38.571703      220.93869      0.5          
   2478000  -694.29505      189.65312      218.95288      0.5          
   2479000  -694.18682      72.434108      217.86772      0.5          
   2480000  -693.95381      132.63613      218.32543      0.5          
   2481000  -694.17099      328.31929      218.90429      0.5          
   2482000  -694.46149      81.450884      221.46738      0.5          
   2483000  -694.48884     -167.38602      220.58185      0.5          
   2484000  -694.01913      85.699787      218.34843      0.5          
   2485000  -694.05372     -117.74583      218.69878      0.5          
   2486000  -694.14511     -82.965463      222.73483      0.5          
   2487000  -694.25706     -124.37389      220.79913      0.5          
   2488000  -693.85807     -81.249471      217.00909      0.5          
   2489000  -693.98554     -4.7646016      217.75789      0.5          
   2490000  -694.1652       406.2015       220.2901       0.5          
   2491000  -693.98027     -34.530199      218.03521      0.5          
   2492000  -693.68212     -14.237182      219.41246      0.5          
   2493000  -693.73914     -62.280777      218.38777      0.5          
   2494000  -693.61575     -9.1604386      217.67287      0.5          
   2495000  -693.78503     -304.0884       216.7812       0.5          
   2496000  -693.78223      209.96849      219.63198      0.5          
   2497000  -693.53596      72.463612      219.24227      0.5          
   2498000  -693.63518     -281.18682      222.01974      0.5          
   2499000  -693.87099      50.498922      220.49594      0.5          
   2500000  -693.72408      184.52488      220.78859      0.5          
   2501000  -693.66316      13.255743      218.54343      0.5          
   2502000  -693.86092      217.85686      219.69359      0.5          
   2503000  -693.71233      94.765239      220.38823      0.5          
   2504000  -693.85459      34.935608      221.52589      0.5          
   2505000  -693.62913     -31.696884      218.47875      0.5          
   2506000  -693.59891     -12.193354      221.24502      0.5          
   2507000  -693.71543     -70.595092      221.0778       0.5          
   2508000  -693.56922      145.77398      219.53286      0.5          
   2509000  -693.46236      408.25742      218.90189      0.5          
   2510000  -693.37242      54.003934      220.09385      0.5          
   2511000  -693.33537      62.420604      221.18284      0.5          
   2512000  -693.81122      77.938694      221.89741      0.5          
   2513000  -693.43877     -147.75504      218.57644      0.5          
   2514000  -693.15407      160.51594      217.57768      0.5          
   2515000  -693.47622     -93.966126      218.63881      0.5          
   2516000  -693.6532      -152.26638      222.31998      0.5          
   2517000  -693.68255     -187.02352      221.18623      0.5          
   2518000  -693.56502      187.99624      217.63033      0.5          
   2519000  -693.26853      148.79954      218.11103      0.5          
   2520000  -693.3698      -50.791298      218.61054      0.5          
   2521000  -693.69183      208.95591      220.8892       0.5          
   2522000  -693.55088      20.041273      218.07786      0.5          
   2523000  -693.21445     -168.60308      218.6203       0.5          
   2524000  -693.05741     -187.34908      215.90612      0.5          
   2525000  -693.35737      336.10183      219.05188      0.5          
   2526000  -693.69195      85.503448      218.93509      0.5          
   2527000  -693.53558     -179.7694       217.90013      0.5          
   2528000  -693.24957     -217.58515      218.16646      0.5          
   2529000  -693.36876     -111.15938      216.44711      0.5          
   2530000  -693.58395     -25.930596      219.34371      0.5          
   2531000  -693.57953      53.819524      222.90201      0.5          
   2532000  -693.88161      153.56669      218.74906      0.5          
   2533000  -693.62298     -194.76761      219.49149      0.5          
   2534000  -693.52814     -32.864598      219.68166      0.5          
   2535000  -693.82655      191.9482       218.12587      0.5          
   2536000  -693.96817      95.728181      221.28769      0.5          
   2537000  -693.80339     -10.707239      218.77278      0.5          
   2538000  -693.99568      93.275324      222.7336       0.5          
   2539000  -694.14899      0.55491568     221.0191       0.5          
   2540000  -693.81168      155.03474      220.70443      0.5          
   2541000  -693.77514     -91.940325      220.04945      0.5          
   2542000  -693.67627      44.394441      220.00996      0.5          
   2543000  -693.85006      206.22299      221.642        0.5          
   2544000  -693.71164     -227.41998      220.31108      0.5          
   2545000  -693.70058     -68.400882      219.89143      0.5          
   2546000  -693.5394       124.1697       220.40197      0.5          
   2547000  -693.67733     -181.75262      219.03185      0.5          
   2548000  -694.20318     -73.630955      221.47868      0.5          
   2549000  -694.19093      13.860258      218.84304      0.5          
   2550000  -693.77171      90.383041      217.07192      0.5          
   2551000  -693.66565     -6.7057936      217.96993      0.5          
   2552000  -694.01831      198.72724      217.34452      0.5          
   2553000  -694.09999      70.356284      218.97108      0.5          
   2554000  -693.97411     -223.41539      219.16385      0.5          
   2555000  -693.74799     -358.40112      217.21104      0.5          
   2556000  -693.75764     -238.39365      215.3232       0.5          
   2557000  -694.2921       17.00809       218.40769      0.5          
   2558000  -694.62262     -117.65822      219.15826      0.5          
   2559000  -694.22365      256.44953      218.42533      0.5          
   2560000  -694.11836     -65.042941      217.34237      0.5          
   2561000  -694.31896     -107.71208      220.17969      0.5          
   2562000  -694.39919     -212.68216      218.38388      0.5          
   2563000  -694.31359      43.621135      222.51418      0.5          
   2564000  -694.0027       86.461722      220.26171      0.5          
   2565000  -694.25924     -8.3667735      222.01759      0.5          
   2566000  -694.08896      81.989098      220.18404      0.5          
   2567000  -693.93821      10.338765      220.61092      0.5          
   2568000  -693.93466      154.82631      220.5657       0.5          
   2569000  -694.01807     -90.715285      220.89724      0.5          
   2570000  -694.01351      25.267896      220.35493      0.5          
   2571000  -693.69116      144.48568      219.69455      0.5          
   2572000  -693.83253      75.888228      218.4965       0.5          
   2573000  -694.02135     -12.492798      219.93354      0.5          
   2574000  -694.17588      98.851966      220.37821      0.5          
   2575000  -694.15887      158.09401      219.23808      0.5          
   2576000  -694.18533     -57.293248      217.3094       0.5          
   2577000  -694.31106     -46.535494      218.73964      0.5          
   2578000  -694.07363      96.998805      219.38814      0.5          
   2579000  -694.09969     -151.70892      220.8861       0.5          
   2580000  -694.22662     -156.67235      221.48148      0.5          
   2581000  -694.49235     -19.905205      222.58128      0.5          
   2582000  -693.98735      87.689363      221.38664      0.5          
   2583000  -694.25517      191.47347      220.16534      0.5          
   2584000  -694.37666     -117.44494      221.78663      0.5          
   2585000  -694.2238      -122.52703      220.21049      0.5          
   2586000  -694.0129       37.681742      221.06564      0.5          
   2587000  -694.21806      108.08015      220.06432      0.5          
   2588000  -694.27008     -73.669927      223.44473      0.5          
   2589000  -694.3034      -278.24102      220.83824      0.5          
   2590000  -694.66453      184.09355      220.38502      0.5          
   2591000  -694.36628      1.5144663      221.75188      0.5          
   2592000  -694.13476     -30.859782      217.00861      0.5          
   2593000  -694.16034     -61.561141      220.92565      0.5          
   2594000  -694.30347     -187.88926      218.46361      0.5          
   2595000  -694.55345     -25.260244      221.11049      0.5          
   2596000  -694.17734     -205.14701      217.91186      0.5          
   2597000  -694.11708     -98.75848       217.13011      0.5          
   2598000  -694.29495     -110.5017       219.80958      0.5          
   2599000  -694.11348      104.428        218.81933      0.5          
   2600000  -693.90386     -152.97653      217.81271      0.5          
   2601000  -693.97854      34.198145      219.59141      0.5          
   2602000  -693.89777      43.191994      220.27815      0.5          
   2603000  -694.15967      46.667839      219.9409       0.5          
   2604000  -693.6531      -113.86456      217.7398       0.5          
   2605000  -693.34124     -173.7855       221.10399      0.5          
   2606000  -693.46961     -6.09851        221.56393      0.5          
   2607000  -693.65414     -8.9807051      219.12124      0.5          
   2608000  -693.79489      126.45513      221.66781      0.5          
   2609000  -693.72098     -319.63371      217.87453      0.5          
   2610000  -693.61158     -127.35715      216.59243      0.5          
   2611000  -693.46523     -59.859414      217.67115      0.5          
   2612000  -693.67689     -122.50898      219.38575      0.5          
   2613000  -693.73703      185.71137      218.83436      0.5          
   2614000  -693.76224     -96.203559      219.02816      0.5          
   2615000  -693.72691      49.303107      219.09283      0.5          
   2616000  -693.58647     -34.130637      218.7125       0.5          
   2617000  -693.95408     -160.34534      223.45152      0.5          
   2618000  -693.81348     -50.219338      219.15401      0.5          
   2619000  -693.48183     -47.163426      218.44807      0.5          
   2620000  -693.65382     -58.873842      216.1962       0.5          
   2621000  -693.36857      25.413917      219.13874      0.5          
   2622000  -693.69179      9.9887344      221.1548       0.5          
   2623000  -693.80058     -73.757236      218.30785      0.5          
   2624000  -693.55334      95.557547      221.3793       0.5          
   2625000  -693.66834      23.818706      221.58255      0.5          
   2626000  -693.90462      34.334128      220.6299       0.5          
   2627000  -694.02277      10.690058      220.61354      0.5          
   2628000  -693.99704      213.0049       219.62087      0.5          
   2629000  -693.81076     -152.11963      220.87132      0.5          
   2630000  -694.18106     -132.80817      222.14565      0.5          
   2631000  -694.30465      2.5300301      219.76438      0.5          
   2632000  -694.25623      33.934134      217.75673      0.5          
   2633000  -694.23168      59.665808      218.97327      0.5          
   2634000  -694.15057     -306.5237       216.38224      0.5          
   2635000  -694.34658      155.05073      217.80288      0.5          
   2636000  -694.52763     -209.78533      218.03327      0.5          
   2637000  -694.55379     -61.069485      217.72329      0.5          
   2638000  -694.23746     -102.5793       215.59618      0.5          
   2639000  -694.24651     -55.704442      218.88509      0.5          
   2640000  -694.08584      107.32809      218.63025      0.5          
   2641000  -694.31288      59.467194      215.29104      0.5          
   2642000  -694.36417      8.5424523      221.7097       0.5          
   2643000  -694.15743     -36.163008      217.49083      0.5          
   2644000  -694.30737     -243.25282      222.80933      0.5          
   2645000  -694.48145      29.400727      223.22826      0.5          
   2646000  -694.35856      174.09367      220.8783       0.5          
   2647000  -693.77362     -172.01828      217.89069      0.5          
   2648000  -694.06136     -25.234586      222.4623       0.5          
   2649000  -693.73957     -66.98379       220.06955      0.5          
   2650000  -693.94972      119.46601      223.05888      0.5          
   2651000  -693.39954      3.9728016      220.56885      0.5          
   2652000  -693.32831      206.49679      219.74074      0.5          
   2653000  -693.37549      118.26751      220.10121      0.5          
   2654000  -693.74117     -97.506559      221.07617      0.5          
   2655000  -693.50761     -143.2213       221.60797      0.5          
   2656000  -693.42776      35.081602      222.29443      0.5          
   2657000  -693.51072      164.8119       221.3356       0.5          
   2658000  -693.70853     -330.14674      222.59997      0.5          
   2659000  -693.40243     -109.1281       222.15734      0.5          
   2660000  -693.52648      229.47162      225.01829      0.5          
   2661000  -693.5606       27.250117      221.25301      0.5          
   2662000  -693.38305     -101.83069      220.82392      0.5          
   2663000  -693.51911     -181.23498      219.32091      0.5          
   2664000  -693.62616      86.432939      219.78494      0.5          
   2665000  -693.53955     -41.44889       218.03524      0.5          
   2666000  -693.34745     -136.31407      219.00425      0.5          
   2667000  -693.4098       162.66339      218.61543      0.5          
   2668000  -693.0184       94.791882      216.37623      0.5          
   2669000  -693.23208     -42.350966      217.86476      0.5          
   2670000  -693.32405     -194.47173      217.17205      0.5          
   2671000  -693.00225      112.65656      219.41259      0.5          
   2672000  -693.12809     -13.742436      219.61794      0.5          
   2673000  -693.12921     -160.94273      219.57946      0.5          
   2674000  -693.24691      11.722352      218.91596      0.5          
   2675000  -693.18064      44.051855      220.32083      0.5          
   2676000  -692.88411     -8.0782899      217.65727      0.5          
   2677000  -693.03351     -43.419759      218.6423       0.5          
   2678000  -692.99796     -132.9059       219.0769       0.5          
   2679000  -693.18195      277.35081      220.32532      0.5          
   2680000  -693.30796     -1.975513       222.48206      0.5          
   2681000  -692.82305     -126.34735      217.12139      0.5          
   2682000  -692.98449      74.283125      219.99822      0.5          
   2683000  -693.08636      48.186648      221.75152      0.5          
   2684000  -693.07654     -168.59795      221.97089      0.5          
   2685000  -692.95616     -65.729311      219.77555      0.5          
   2686000  -692.66861      52.696759      220.5857       0.5          
   2687000  -692.75938      6.6855567      222.15767      0.5          
   2688000  -692.78107     -107.24745      220.68322      0.5          
   2689000  -692.7829      -200.37556      219.16432      0.5          
   2690000  -692.4851       31.004211      220.72881      0.5          
   2691000  -692.69426      30.6414        220.10998      0.5          
   2692000  -692.96419      136.71988      220.08879      0.5          
   2693000  -692.87909     -52.302787      219.12149      0.5          
   2694000  -692.28855      162.72045      218.17717      0.5          
   2695000  -692.46386      50.893867      220.42498      0.5          
   2696000  -692.15176     -105.21569      217.85037      0.5          
   2697000  -692.40878      66.331546      216.49558      0.5          
   2698000  -692.39337      265.04433      221.78526      0.5          
   2699000  -692.00047      146.76383      216.14539      0.5          
   2700000  -692.31477     -88.828471      220.10907      0.5          
   2701000  -692.39029      133.87865      218.29195      0.5          
   2702000  -692.17543      159.45358      218.04827      0.5          
   2703000  -692.08966     -206.28922      218.31923      0.5          
   2704000  -691.90014     -47.469674      218.71812      0.5          
   2705000  -691.92648      141.46984      222.76702      0.5          
   2706000  -692.29853     -130.01551      218.99363      0.5          
   2707000  -692.13805     -120.09335      219.14132      0.5          
   2708000  -692.03793      17.658312      220.06905      0.5          
   2709000  -692.00674      6.0580006      217.93184      0.5          
   2710000  -692.32952      4.5510277      220.98635      0.5          
   2711000  -692.59367     -133.12594      220.22138      0.5          
   2712000  -691.97955     -169.60618      220.95985      0.5          
   2713000  -692.07712     -73.683888      220.08216      0.5          
   2714000  -692.42871      340.6966       222.04563      0.5          
   2715000  -692.34899      189.09936      220.92757      0.5          
   2716000  -692.52953     -171.66793      220.87357      0.5          
   2717000  -692.13115      44.701692      222.83311      0.5          
   2718000  -692.21099      78.39997       223.11167      0.5          
   2719000  -692.28645      33.772119      218.06649      0.5          
   2720000  -692.28069     -77.095213      219.4412       0.5          
   2721000  -692.08284      182.20392      222.04627      0.5          
   2722000  -691.99703      181.77932      215.63541      0.5          
   2723000  -691.94983      143.63567      220.61058      0.5          
   2724000  -692.4982      -19.453509      217.98707      0.5          
   2725000  -692.61315     -15.601017      220.77871      0.5          
   2726000  -692.13137      169.39075      221.335        0.5          
   2727000  -692.32628     -93.607783      220.96627      0.5          
   2728000  -692.48338     -87.243069      216.5725       0.5          
   2729000  -692.41377     -57.88627       217.47146      0.5          
   2730000  -692.52124      16.960384      220.61764      0.5          
   2731000  -692.49548     -34.886934      219.49885      0.5          
   2732000  -692.31001     -304.71287      220.31266      0.5          
   2733000  -692.19489      129.54455      219.25849      0.5          
   2734000  -692.00551      330.73752      219.22376      0.5          
   2735000  -692.43252     -23.132161      220.69209      0.5          
   2736000  -692.19175     -84.843875      220.45891      0.5          
   2737000  -691.85217     -55.363042      220.16695      0.5          
   2738000  -692.04472      96.670976      219.63883      0.5          
   2739000  -692.53657     -28.20247       221.47587      0.5          
   2740000  -692.21564     -15.08164       221.13511      0.5          
   2741000  -691.98985      376.38917      220.14954      0.5          
   2742000  -692.09883      61.699124      218.20341      0.5          
   2743000  -692.28901     -104.61346      219.42031      0.5          
   2744000  -691.99768      46.704019      220.78484      0.5          
   2745000  -691.68062     -278.7974       219.19668      0.5          
   2746000  -691.73231     -107.67247      220.99593      0.5          
   2747000  -692.04275      326.56826      221.66039      0.5          
   2748000  -692.14806      133.77338      220.05913      0.5          
   2749000  -691.74636     -54.275591      220.52515      0.5          
   2750000  -691.60461     -198.65716      220.75843      0.5          
   2751000  -691.90625      270.64543      221.7028       0.5          
   2752000  -692.02129      198.95489      222.12465      0.5          
   2753000  -691.62921     -22.202708      222.22868      0.5          
   2754000  -691.42682      73.917954      221.1405       0.5          
   2755000  -691.47026     -4.96975        217.33265      0.5          
   2756000  -691.97061     -67.179031      222.09357      0.5          
   2757000  -691.50383     -132.64137      219.89734      0.5          
   2758000  -691.46808     -72.880314      216.42248      0.5          
   2759000  -691.55267     -40.985597      221.13865      0.5          
   2760000  -691.35465      204.41505      220.50095      0.5          
   2761000  -691.3916      -15.746403      218.09278      0.5          
   2762000  -691.29893     -75.561551      219.87754      0.5          
   2763000  -691.51907      33.929277      217.62882      0.5          
   2764000  -691.46982     -87.882661      219.33847      0.5          
   2765000  -691.35836      71.516434      219.30621      0.5          
   2766000  -691.20955      230.131        220.27422      0.5          
   2767000  -691.37022     -14.944529      219.72645      0.5          
   2768000  -691.45124     -293.65911      218.83559      0.5          
   2769000  -691.18677     -61.855499      218.74489      0.5          
   2770000  -691.51849     -101.6032       221.76068      0.5          
   2771000  -691.35147     -148.45907      216.56774      0.5          
   2772000  -691.52015     -170.33237      218.36699      0.5          
   2773000  -691.58151     -70.798991      219.04701      0.5          
   2774000  -690.88176      141.7834       219.38762      0.5          
   2775000  -691.02519     -124.84499      217.72754      0.5          
   2776000  -691.2204      -31.666188      221.53504      0.5          
   2777000  -691.24394      239.31455      217.92694      0.5          
   2778000  -691.07299     -14.926459      219.43246      0.5          
   2779000  -690.98047     -289.90416      219.86199      0.5          
   2780000  -691.39316      49.980147      220.99511      0.5          
   2781000  -691.64345      12.966853      218.5653       0.5          
   2782000  -691.55031     -232.45564      222.26471      0.5          
   2783000  -691.41501      353.21042      220.27588      0.5          
   2784000  -691.55528      116.47169      221.49225      0.5          
   2785000  -691.33794     -262.79543      218.74523      0.5          
   2786000  -691.63009      112.84812      222.69232      0.5          
   2787000  -691.70457      242.53806      222.77859      0.5          
   2788000  -691.82043      114.42218      224.08846      0.5          
   2789000  -691.62871     -212.60526      221.30154      0.5          
   2790000  -691.13382     -308.0322       221.05783      0.5          
   2791000  -691.45892      274.71997      222.28165      0.5          
   2792000  -691.6827       473.15083      222.3469       0.5          
   2793000  -691.4153      -188.19321      221.94447      0.5          
   2794000  -691.33422     -98.507353      220.21416      0.5          
   2795000  -691.1315       31.13754       220.09491      0.5          
   2796000  -691.28751      209.4443       220.71222      0.5          
   2797000  -691.5638      -138.52727      219.93265      0.5          
   2798000  -691.50335     -130.02262      221.49119      0.5          
   2799000  -690.93367      220.77789      216.95396      0.5          
   2800000  -691.00807     -4.2151439      217.97906      0.5          
   2801000  -691.17566     -165.37554      218.16794      0.5          
   2802000  -691.29541     -46.13211       221.29096      0.5          
   2803000  -691.06723     -30.82752       219.93979      0.5          
   2804000  -690.52661     -121.80207      217.47804      0.5          
   2805000  -690.99599     -31.75834       220.19894      0.5          
   2806000  -691.23862     -57.163326      219.86622      0.5          
   2807000  -690.99297     -114.95188      219.40305      0.5          
   2808000  -690.81484      33.429096      220.78705      0.5          
   2809000  -690.89383     -186.57766      222.472        0.5          
   2810000  -691.37918      193.98663      219.58716      0.5          
   2811000  -691.23333      69.036706      220.4054       0.5          
   2812000  -690.87781     -17.687479      220.73582      0.5          
   2813000  -690.86504      31.987091      218.2436       0.5          
   2814000  -691.33427      103.63822      221.97066      0.5          
   2815000  -691.48168      175.3334       221.32007      0.5          
   2816000  -690.92307      12.448643      222.1994       0.5          
   2817000  -690.78825      39.452378      221.48119      0.5          
   2818000  -691.0866       83.895389      222.41616      0.5          
   2819000  -691.19223     -2.0840701      222.34427      0.5          
   2820000  -691.21201     -159.00787      221.52423      0.5          
   2821000  -690.70574      168.80277      219.14633      0.5          
   2822000  -690.78659      24.649643      222.60655      0.5          
   2823000  -690.98239     -183.14611      223.65503      0.5          
   2824000  -691.03333      188.55433      224.21723      0.5          
   2825000  -690.47535      49.072246      219.63851      0.5          
   2826000  -690.62268     -347.96651      220.68466      0.5          
   2827000  -690.70792     -112.97853      223.02335      0.5          
   2828000  -690.52274     -41.341661      217.84336      0.5          
   2829000  -690.29118      207.1412       218.90925      0.5          
   2830000  -690.44463      120.14807      219.9855       0.5          
   2831000  -690.27701     -281.55962      221.23579      0.5          
   2832000  -690.33573      27.179244      222.61717      0.5          
   2833000  -690.18662      137.61529      217.58218      0.5          
   2834000  -690.06488     -142.65626      221.22465      0.5          
   2835000  -689.96361     -18.091032      220.42909      0.5          
   2836000  -690.21228     -49.801982      221.68322      0.5          
   2837000  -689.97709     -93.257447      220.06172      0.5          
   2838000  -689.94284      24.047119      218.03966      0.5          
   2839000  -690.02608      24.237209      219.96269      0.5          
   2840000  -690.26659      61.97807       220.10095      0.5          
   2841000  -690.15163     -123.44265      218.99762      0.5          
   2842000  -690.23735      30.423626      219.87595      0.5          
   2843000  -689.90069      24.598089      218.06555      0.5          
   2844000  -689.93026      160.33742      222.22651      0.5          
   2845000  -689.74765      83.526395      220.82359      0.5          
   2846000  -689.93465     -337.38358      221.25645      0.5          
   2847000  -689.66931     -5.9326828      218.79554      0.5          
   2848000  -689.61735      219.92661      220.03797      0.5          
   2849000  -689.90127      32.027498      222.31852      0.5          
   2850000  -690.10644     -98.91837       222.87419      0.5          
   2851000  -689.88849      150.39931      221.1482       0.5          
   2852000  -690.2175      -170.22389      219.82912      0.5          
   2853000  -690.15824     -43.76023       221.0308       0.5          
   2854000  -689.90338      316.60694      218.89445      0.5          
   2855000  -689.53323     -0.22198563     218.19407      0.5          
   2856000  -689.79641     -45.375485      220.65133      0.5          
   2857000  -689.95479      65.924546      225.15483      0.5          
   2858000  -689.98954      304.43511      221.4824       0.5          
   2859000  -689.78637      51.583807      219.71291      0.5          
   2860000  -689.52135     -102.0291       222.6124       0.5          
   2861000  -689.75224      108.36831      219.11292      0.5          
   2862000  -689.96798      183.73467      223.74542      0.5          
   2863000  -689.65007     -455.41766      218.48155      0.5          
   2864000  -689.66062      43.880713      220.93149      0.5          
   2865000  -689.47262     -51.941481      219.51731      0.5          
   2866000  -689.75922     -121.28638      222.3522       0.5          
   2867000  -689.89054     -62.012129      221.92033      0.5          
   2868000  -689.78741     -24.703745      219.24651      0.5          
   2869000  -689.58549     -31.961862      219.94232      0.5          
   2870000  -689.63753      61.418387      221.64593      0.5          
   2871000  -689.66442      21.109286      220.48888      0.5          
   2872000  -689.4648      -256.1025       220.7199       0.5          
   2873000  -689.43479      135.72973      220.74301      0.5          
   2874000  -689.38022      76.21781       219.81145      0.5          
   2875000  -689.59257     -135.61107      221.51532      0.5          
   2876000  -689.50704     -338.45481      218.53403      0.5          
   2877000  -689.59301     -140.62643      219.89866      0.5          
   2878000  -689.68755      154.64491      218.58443      0.5          
   2879000  -689.57645     -144.10689      220.08739      0.5          
   2880000  -689.50827     -197.3958       220.12264      0.5          
   2881000  -690.01427      451.12385      220.69157      0.5          
   2882000  -689.91685      58.427362      220.77539      0.5          
   2883000  -689.74146     -231.62388      221.48889      0.5          
   2884000  -689.55077      230.2874       222.5659       0.5          
   2885000  -689.67378     -42.856733      220.29148      0.5          
   2886000  -689.68956     -41.381451      222.33653      0.5          
   2887000  -689.55892      129.7392       220.51286      0.5          
   2888000  -689.61556     -321.16568      219.81137      0.5          
   2889000  -689.30706     -24.297404      220.6995       0.5          
   2890000  -689.1746       261.77462      218.95316      0.5          
   2891000  -689.37208      239.89368      219.56756      0.5          
   2892000  -689.85212     -32.18991       223.6953       0.5          
   2893000  -689.62808      17.064933      220.27334      0.5          
   2894000  -689.49977      168.65544      217.64433      0.5          
   2895000  -689.26843     -112.01467      218.83791      0.5          
   2896000  -689.59973     -186.36921      219.24267      0.5          
   2897000  -689.8222       89.972336      222.89024      0.5          
   2898000  -689.72059      226.8995       220.79045      0.5          
   2899000  -689.63206     -83.923058      218.69845      0.5          
   2900000  -689.54789     -131.84679      220.96639      0.5          
   2901000  -689.72582      241.19048      220.60975      0.5          
   2902000  -689.63955      74.688599      222.96703      0.5          
   2903000  -689.38211     -70.675696      218.0917       0.5          
   2904000  -689.48414      135.07794      218.36671      0.5          
   2905000  -689.3654      -43.592802      218.54873      0.5          
   2906000  -689.32536     -15.902039      219.90965      0.5          
   2907000  -689.3521       375.16272      220.84345      0.5          
   2908000  -689.16894      138.44191      222.10124      0.5          
   2909000  -689.0027      -162.73711      219.77446      0.5          
   2910000  -689.12495     -1.8790477      219.85787      0.5          
   2911000  -689.27988     -48.401881      219.83421      0.5          
   2912000  -689.0425       53.281919      216.86845      0.5          
   2913000  -688.66911      252.38539      217.18229      0.5          
   2914000  -688.83487     -186.37569      218.18872      0.5          
   2915000  -689.08784     -96.85919       218.52529      0.5          
   2916000  -688.72481      96.644414      214.77576      0.5          
   2917000  -688.95117     -111.04937      218.85486      0.5          
   2918000  -688.92144     -3.5336817      219.33632      0.5          
   2919000  -689.01316      107.9917       219.17694      0.5          
   2920000  -688.85031     -26.250575      218.02732      0.5          
   2921000  -688.69008     -67.24107       220.72461      0.5          
   2922000  -688.91042     -165.83186      219.25371      0.5          
   2923000  -688.84638      138.04865      217.97247      0.5          
   2924000  -689.14476      7.5436652      219.47305      0.5          
   2925000  -688.73385     -155.00999      220.24845      0.5          
   2926000  -688.74155     -10.759798      216.45839      0.5          
   2927000  -688.69077     -17.619472      218.82877      0.5          
   2928000  -688.96794     -75.710025      219.24621      0.5          
   2929000  -689.13143      46.41886       220.21251      0.5          
   2930000  -688.93742      300.37103      219.3053       0.5          
   2931000  -688.89613     -148.73322      219.41866      0.5          
   2932000  -689.05684     -225.96144      223.71522      0.5          
   2933000  -688.6263       159.68424      220.6545       0.5          
   2934000  -688.703        53.8095        219.21553      0.5          
   2935000  -688.76638     -245.2776       221.47863      0.5          
   2936000  -688.60219      127.84013      217.95339      0.5          
   2937000  -688.68556      123.82449      222.08082      0.5          
   2938000  -688.78731     -122.07184      222.16621      0.5          
   2939000  -688.79537      14.405429      222.17231      0.5          
   2940000  -688.46658      230.5083       220.90007      0.5          
   2941000  -688.7345      -6.4010344      220.34956      0.5          
   2942000  -688.75942     -163.10104      219.87144      0.5          
   2943000  -688.80622     -57.06684       219.661        0.5          
   2944000  -688.59297      33.437712      219.04554      0.5          
   2945000  -688.60778     -125.45108      220.88021      0.5          
   2946000  -688.46588      137.91695      219.83625      0.5          
   2947000  -688.40239      159.95998      218.53205      0.5          
   2948000  -688.69701     -154.45329      220.00071      0.5          
   2949000  -689.01044      223.23486      220.81888      0.5          
   2950000  -688.79402      120.55114      220.29799      0.5          
   2951000  -688.54396     -74.874482      216.69078      0.5          
   2952000  -688.6005       29.856857      219.62666      0.5          
   2953000  -689.18157      5.0755639      222.63991      0.5          
   2954000  -689.20663     -68.063082      221.38305      0.5          
   2955000  -688.92554      108.05644      218.60119      0.5          
   2956000  -688.73053      125.33229      218.10886      0.5          
   2957000  -689.13765     -114.23579      221.63745      0.5          
   2958000  -688.67289     -223.8004       217.87557      0.5          
   2959000  -688.79831     -20.358598      220.84727      0.5          
   2960000  -688.57515      52.081612      220.12625      0.5          
   2961000  -688.90479     -25.826666      221.00128      0.5          
   2962000  -688.7089       7.9279481      218.20441      0.5          
   2963000  -688.91592      78.685772      220.69798      0.5          
   2964000  -688.66617     -68.158298      219.59352      0.5          
   2965000  -688.83885     -141.39127      221.01877      0.5          
   2966000  -688.58353     -160.17866      219.78949      0.5          
   2967000  -688.68118     -119.12386      216.89182      0.5          
   2968000  -689.03663      109.97679      220.09922      0.5          
   2969000  -688.96019      131.82942      221.65826      0.5          
   2970000  -688.89325      74.839343      218.47077      0.5          
   2971000  -689.08096      251.15922      218.92024      0.5          
   2972000  -688.90905      169.89128      221.57888      0.5          
   2973000  -688.92671     -229.87401      223.14546      0.5          
   2974000  -688.7739      -8.9573649      220.75664      0.5          
   2975000  -688.72717      234.22548      217.61405      0.5          
   2976000  -689.08073     -108.61061      220.75888      0.5          
   2977000  -688.81474     -184.85045      218.75704      0.5          
   2978000  -688.89269      155.0046       221.26196      0.5          
   2979000  -688.61947     -84.088712      222.20372      0.5          
   2980000  -688.48083     -96.661852      220.66846      0.5          
   2981000  -688.43367     -144.67823      219.46465      0.5          
   2982000  -688.57727     -127.94379      219.91359      0.5          
   2983000  -688.64396      116.38296      222.58308      0.5          
   2984000  -688.5066       207.28223      220.52309      0.5          
   2985000  -688.68954      253.38647      222.67542      0.5          
   2986000  -688.6055      -96.689627      219.25087      0.5          
   2987000  -688.5126      -163.5741       219.87139      0.5          
   2988000  -688.45564      83.175849      218.35011      0.5          
   2989000  -688.15159      133.53402      222.2857       0.5          
   2990000  -688.13448     -102.8725       217.80461      0.5          
   2991000  -687.76096      51.293998      215.20097      0.5          
   2992000  -688.16461      216.53409      219.12792      0.5          
   2993000  -688.29086     -97.418476      220.88905      0.5          
   2994000  -688.25327     -133.09611      220.53809      0.5          
   2995000  -687.93802      29.686722      217.72124      0.5          
   2996000  -688.08814     -208.54599      221.08957      0.5          
   2997000  -688.06266     -162.07902      222.01822      0.5          
   2998000  -688.15566      5.4589786      218.3358       0.5          
   2999000  -687.92973     -201.72047      217.15638      0.5          
   3000000  -688.34663      105.4685       223.68151      0.5          
   3001000  -688.38778     -209.91896      225.36442      0.5          
   3002000  -687.91126     -19.336801      222.05781      0.5          
   3003000  -688.04347     -36.041501      217.94256      0.5          
   3004000  -687.92843      120.23025      221.17219      0.5          
   3005000  -688.61438      162.18626      223.70864      0.5          
   3006000  -688.35215      71.285505      218.25182      0.5          
   3007000  -688.03266      128.78912      220.3415       0.5          
   3008000  -688.01034      141.60549      218.9316       0.5          
   3009000  -688.271        0.61903048     220.1697       0.5          
   3010000  -688.76895     -62.754283      222.74257      0.5          
   3011000  -688.26434      35.802708      221.09622      0.5          
   3012000  -688.04588      242.68724      218.15092      0.5          
   3013000  -687.99058      47.474722      219.07365      0.5          
   3014000  -688.1527      -124.70322      220.09666      0.5          
   3015000  -688.26653      260.2438       220.61101      0.5          
   3016000  -688.0305      -134.31616      219.20286      0.5          
   3017000  -687.78907     -202.28999      218.92752      0.5          
   3018000  -688.04727      167.51301      221.96881      0.5          
   3019000  -688.12528      91.583512      222.46634      0.5          
   3020000  -687.94318     -210.36199      219.0897       0.5          
   3021000  -687.51893     -61.782175      217.1004       0.5          
   3022000  -687.67444      304.09321      217.88349      0.5          
   3023000  -687.66926      52.77823       219.9965       0.5          
   3024000  -687.85916     -125.64219      218.66885      0.5          
   3025000  -687.94425     -71.808924      218.92138      0.5          
   3026000  -687.63537     -15.354659      217.48734      0.5          
   3027000  -687.83731     -74.919409      219.17218      0.5          
   3028000  -687.94928      44.906621      220.12906      0.5          
   3029000  -687.87514      243.98736      220.46992      0.5          
   3030000  -688.13982     -90.325205      221.89458      0.5          
   3031000  -687.78907     -130.69401      219.5682       0.5          
   3032000  -687.55113      111.44375      220.70291      0.5          
   3033000  -687.62564      252.88915      218.16655      0.5          
   3034000  -687.75342     -212.05828      219.7693       0.5          
   3035000  -687.74337      55.178298      221.39897      0.5          
   3036000  -687.87439      159.55066      220.32563      0.5          
   3037000  -688.0067       89.742515      220.93771      0.5          
   3038000  -687.56341     -126.63428      221.18364      0.5          
   3039000  -687.56729      37.19116       218.93132      0.5          
   3040000  -687.82967      221.715        220.00961      0.5          
   3041000  -687.78995      206.98794      222.62979      0.5          
   3042000  -687.7602       42.55124       218.70527      0.5          
   3043000  -687.86852     -307.07335      218.72106      0.5          
   3044000  -687.75086     -34.787328      218.87969      0.5          
   3045000  -687.73701      110.79951      217.65574      0.5          
   3046000  -687.7756       42.976754      216.54978      0.5          
   3047000  -687.9939       20.943713      219.86584      0.5          
   3048000  -687.67234     -250.00956      215.81552      0.5          
   3049000  -687.65923      226.81321      218.87265      0.5          
   3050000  -687.34176      10.492119      218.65221      0.5          
   3051000  -687.25768     -287.10439      219.01993      0.5          
   3052000  -687.00439     -102.19143      221.64274      0.5          
   3053000  -686.91319      69.979254      218.68797      0.5          
   3054000  -686.90638      65.778108      220.38415      0.5          
   3055000  -686.78472     -111.91619      219.99249      0.5          
   3056000  -686.77199      72.774743      220.43586      0.5          
   3057000  -686.56358     -63.41145       219.08866      0.5          
   3058000  -686.78215     -100.95029      220.82517      0.5          
   3059000  -686.59966      160.77147      222.20352      0.5          
   3060000  -686.43146      165.50133      219.97222      0.5          
   3061000  -686.31742     -93.325345      221.31896      0.5          
   3062000  -686.1815       2.4844244      222.44034      0.5          
   3063000  -686.10847     -94.296986      220.64021      0.5          
   3064000  -686.24471     -104.26114      221.48579      0.5          
   3065000  -686.50525      112.99319      221.68946      0.5          
   3066000  -686.31369     -108.20257      223.09656      0.5          
   3067000  -686.11486     -111.86755      221.19309      0.5          
   3068000  -686.21482      9.3425704      220.16535      0.5          
   3069000  -686.23571      13.873014      219.67535      0.5          
   3070000  -686.26159     -34.545879      219.83745      0.5          
   3071000  -686.55744      31.407735      223.87022      0.5          
   3072000  -686.18553      155.24857      217.80713      0.5          
   3073000  -686.00618      217.06664      219.67809      0.5          
   3074000  -686.23197     -177.80673      222.50916      0.5          
   3075000  -686.3143      -106.34179      217.0663       0.5          
   3076000  -686.01893      103.01307      218.69174      0.5          
   3077000  -686.158       -120.24614      218.76862      0.5          
   3078000  -685.94927      134.35414      216.50067      0.5          
   3079000  -685.87203     -82.899294      218.41112      0.5          
   3080000  -685.97361     -8.2653006      215.88866      0.5          
   3081000  -685.86362      39.353341      219.04591      0.5          
   3082000  -685.68495     -110.80205      216.35714      0.5          
   3083000  -685.76889     -140.12614      218.72323      0.5          
   3084000  -685.83576     -30.711948      217.12498      0.5          
   3085000  -686.14044     -6.8028595      216.14852      0.5          
   3086000  -685.70741     -15.061004      218.0678       0.5          
   3087000  -685.75562     -0.071575939    216.1111       0.5          
   3088000  -685.96952     -316.88487      216.63296      0.5          
   3089000  -685.82763     -93.150063      218.18778      0.5          
   3090000  -685.77319     -77.215433      220.39495      0.5          
   3091000  -685.16567     -340.11338      214.45311      0.5          
   3092000  -685.83515     -114.27058      221.91734      0.5          
   3093000  -685.60836     -34.59039       220.1542       0.5          
   3094000  -685.76763      123.31161      219.23208      0.5          
   3095000  -685.83407     -224.25695      219.48416      0.5          
   3096000  -685.54956      144.28163      217.97422      0.5          
   3097000  -685.94973      193.97135      217.1918       0.5          
   3098000  -686.04398     -74.706955      221.33236      0.5          
   3099000  -686.1274      -61.685742      221.91231      0.5          
   3100000  -685.89972     -31.849198      220.1455       0.5          
   3101000  -685.64547     -96.953431      218.86093      0.5          
   3102000  -685.93923      184.60919      220.11783      0.5          
   3103000  -685.9732       115.78452      218.42682      0.5          
   3104000  -686.04159      72.774924      220.98183      0.5          
   3105000  -685.91127      95.195984      221.78461      0.5          
   3106000  -685.91792     -43.897254      221.78776      0.5          
   3107000  -685.64195     -41.436429      221.31448      0.5          
   3108000  -685.78211      139.75669      219.04361      0.5          
   3109000  -685.8654      -23.860062      222.26427      0.5          
   3110000  -685.56962     -226.47496      220.06899      0.5          
   3111000  -685.41566      172.27109      221.80587      0.5          
   3112000  -685.47101     -39.265774      222.27342      0.5          
   3113000  -685.6385      -289.34023      220.16216      0.5          
   3114000  -685.67397     -230.37582      220.40404      0.5          
   3115000  -685.54079      15.624168      219.76115      0.5          
   3116000  -685.60756      200.54741      220.87768      0.5          
   3117000  -685.38475     -54.262868      218.31211      0.5          
   3118000  -684.94861      8.3645059      217.97805      0.5          
   3119000  -685.37566      118.7568       219.16498      0.5          
   3120000  -685.1926      -108.03856      216.34935      0.5          
   3121000  -685.54455      256.07639      221.3589       0.5          
   3122000  -684.98857     -155.56876      220.08992      0.5          
   3123000  -685.32236     -17.212393      219.41303      0.5          
   3124000  -685.37359      249.34478      222.44901      0.5          
   3125000  -685.64984      292.433        222.22838      0.5          
   3126000  -685.28685      69.879304      220.03622      0.5          
   3127000  -685.48909      76.100797      220.52046      0.5          
   3128000  -685.27508      80.657021      220.24838      0.5          
   3129000  -685.13072      13.264199      219.37305      0.5          
   3130000  -685.25243      34.375689      218.27163      0.5          
   3131000  -685.55717      38.522539      222.25146      0.5          
   3132000  -685.48855     -38.913506      220.04213      0.5          
   3133000  -685.5219      -177.28817      218.92893      0.5          
   3134000  -685.3915      -64.517996      220.14934      0.5          
   3135000  -685.40546      109.873        221.53397      0.5          
   3136000  -685.69361     -61.431929      222.99027      0.5          
   3137000  -685.59991     -38.378567      218.57201      0.5          
   3138000  -685.48932      243.769        219.63105      0.5          
   3139000  -685.40847      159.56729      218.72895      0.5          
   3140000  -685.44203     -119.34923      220.64473      0.5          
   3141000  -685.41539      130.16161      220.05295      0.5          
   3142000  -685.29934      188.41108      218.58272      0.5          
   3143000  -685.5425       126.163        218.50771      0.5          
   3144000  -685.38687     -4.8074589      218.82716      0.5          
   3145000  -685.20281      185.24889      216.48217      0.5          
   3146000  -685.30874     -230.87803      217.61033      0.5          
   3147000  -685.53587     -46.156811      218.20416      0.5          
   3148000  -685.90016      35.821152      220.42225      0.5          
   3149000  -685.6177      -0.18975851     217.92714      0.5          
   3150000  -685.56179      20.75994       218.81028      0.5          
   3151000  -685.33963     -16.354814      219.64676      0.5          
   3152000  -685.37454     -221.05107      217.23876      0.5          
   3153000  -685.5155       49.090668      222.17929      0.5          
   3154000  -685.21044      24.797287      221.11683      0.5          
   3155000  -685.87798      162.29583      220.22561      0.5          
   3156000  -685.54535      27.848847      218.19973      0.5          
   3157000  -685.55132     -46.579867      221.69166      0.5          
   3158000  -685.39734      64.304282      218.48568      0.5          
   3159000  -685.37087     -42.69512       220.52111      0.5          
   3160000  -685.42399     -19.367601      219.99419      0.5          
   3161000  -685.44797      154.59011      220.27212      0.5          
   3162000  -685.35997     -68.426621      220.28715      0.5          
   3163000  -685.04352     -31.829509      220.83149      0.5          
   3164000  -685.19348      76.006177      217.96557      0.5          
   3165000  -685.53078      303.65504      219.45066      0.5          
   3166000  -685.31989     -297.52968      221.43754      0.5          
   3167000  -685.22584     -126.43546      220.10443      0.5          
   3168000  -685.33209     -88.460945      220.78801      0.5          
   3169000  -685.56455     -51.395268      221.68169      0.5          
   3170000  -685.27427     -20.423799      219.63055      0.5          
   3171000  -685.30001     -14.476726      219.70033      0.5          
   3172000  -685.46926     -58.054725      219.25737      0.5          
   3173000  -685.36824      23.582469      219.47367      0.5          
   3174000  -685.4504      -21.550423      219.92617      0.5          
   3175000  -685.26666      121.78516      220.26017      0.5          
   3176000  -685.48431     -9.488775       221.68164      0.5          
   3177000  -685.67826     -40.17262       219.1011       0.5          
   3178000  -685.39589     -254.21969      219.1286       0.5          
   3179000  -685.52854      135.50558      217.48654      0.5          
   3180000  -685.56104     -265.80508      221.35632      0.5          
   3181000  -685.74619     -100.0816       222.54704      0.5          
   3182000  -685.65881      164.6218       219.25075      0.5          
   3183000  -685.4547      -38.09802       219.69205      0.5          
   3184000  -685.60155      134.53317      219.12785      0.5          
   3185000  -686.12166     -24.909029      217.54384      0.5          
   3186000  -685.64831     -254.26968      218.90322      0.5          
   3187000  -685.61323      112.14743      217.4129       0.5          
   3188000  -686.04267      237.14693      218.07131      0.5          
   3189000  -685.98298     -302.15398      217.9901       0.5          
   3190000  -685.94291     -21.220656      221.63127      0.5          
   3191000  -685.65657      167.67782      220.16576      0.5          
   3192000  -685.79101      143.23063      220.55304      0.5          
   3193000  -685.39431     -158.61747      219.44787      0.5          
   3194000  -685.67784     -96.097274      220.04501      0.5          
   3195000  -685.62597     -106.47453      219.74928      0.5          
   3196000  -685.61261      120.72754      217.72285      0.5          
   3197000  -685.70714      59.348016      220.85389      0.5          
   3198000  -685.65062     -49.515254      219.62369      0.5          
   3199000  -685.67353      320.36408      221.00483      0.5          
   3200000  -685.59916      7.9934566      219.55244      0.5          
   3201000  -685.76415     -80.373061      219.89106      0.5          
   3202000  -685.53259      83.411602      219.99419      0.5          
   3203000  -685.72109     -47.007609      216.56635      0.5          
   3204000  -685.80641     -62.850687      222.30836      0.5          
   3205000  -685.53026      50.605654      219.65619      0.5          
   3206000  -685.54795      37.02127       218.40868      0.5          
   3207000  -685.25024     -29.099065      219.14428      0.5          
   3208000  -685.42776     -140.12364      221.12047      0.5          
   3209000  -685.77053      102.92672      219.41737      0.5          
   3210000  -685.62965     -0.59252922     217.70682      0.5          
   3211000  -685.35548      56.986761      217.6576       0.5          
   3212000  -685.54094      130.8064       216.60992      0.5          
   3213000  -685.57945     -154.47919      218.27857      0.5          
   3214000  -686.21973     -0.29968827     222.27449      0.5          
   3215000  -685.7938      -133.4532       217.77846      0.5          
   3216000  -685.67734      78.730967      217.50306      0.5          
   3217000  -685.83739      171.9095       220.86886      0.5          
   3218000  -685.76812     -25.152219      220.79468      0.5          
   3219000  -685.64032     -66.448569      219.84485      0.5          
   3220000  -685.43038     -106.127        220.89866      0.5          
   3221000  -685.60061      66.950802      223.00148      0.5          
   3222000  -685.55393     -135.7762       220.71416      0.5          
   3223000  -685.68357     -148.85344      222.62881      0.5          
   3224000  -685.48589      178.42925      215.67701      0.5          
   3225000  -685.25911      66.016662      217.94884      0.5          
   3226000  -685.31767      78.378158      220.30807      0.5          
   3227000  -685.32785     -197.67639      223.52675      0.5          
   3228000  -685.23017     -122.77439      221.37592      0.5          
   3229000  -685.041        304.24615      218.37509      0.5          
   3230000  -685.17039      130.80752      217.80888      0.5          
   3231000  -685.28385     -380.78498      219.53286      0.5          
   3232000  -685.12018      0.22288639     219.54141      0.5          
   3233000  -684.885       -54.233225      217.67595      0.5          
   3234000  -685.30513      18.605121      218.12525      0.5          
   3235000  -685.32883     -150.32882      217.02081      0.5          
   3236000  -685.61868      55.793476      218.39004      0.5          
   3237000  -685.31088     -91.113052      218.42233      0.5          
   3238000  -685.47947     -11.401044      220.53845      0.5          
   3239000  -685.44356     -24.404914      221.09684      0.5          
   3240000  -685.51299     -94.566509      217.93327      0.5          
   3241000  -685.55849      70.042168      218.45503      0.5          
   3242000  -685.52058     -10.245512      220.33328      0.5          
   3243000  -685.46683      90.916348      220.78463      0.5          
   3244000  -685.65561     -133.82016      220.64259      0.5          
   3245000  -685.50522      32.014775      216.39034      0.5          
   3246000  -685.43671      83.888452      218.26704      0.5          
   3247000  -685.40584     -192.70333      219.02892      0.5          
   3248000  -685.40091     -66.413667      218.51931      0.5          
   3249000  -685.38683     -34.668521      221.10522      0.5          
   3250000  -685.69806      208.50594      219.96236      0.5          
   3251000  -685.43987      269.64889      221.41984      0.5          
   3252000  -685.21609     -212.50193      219.29801      0.5          
   3253000  -685.33714      102.9503       219.9552       0.5          
   3254000  -685.15801     -166.87298      218.00523      0.5          
   3255000  -685.59317     -206.19446      219.45505      0.5          
   3256000  -685.31481      41.91197       217.75617      0.5          
   3257000  -685.34584      107.53709      216.37588      0.5          
   3258000  -685.27168     -13.102834      219.82318      0.5          
   3259000  -685.55374     -355.83397      218.33368      0.5          
   3260000  -685.64443      181.90064      223.30906      0.5          
   3261000  -685.45705      140.06293      217.50608      0.5          
   3262000  -685.07538      85.135936      218.35819      0.5          
   3263000  -685.43265     -30.147563      217.11113      0.5          
   3264000  -685.76219     -303.35667      220.28184      0.5          
   3265000  -685.74788     -315.04727      218.98537      0.5          
   3266000  -685.37132      44.563219      218.46986      0.5          
   3267000  -685.35314      79.657763      218.38262      0.5          
   3268000  -685.64517     -173.70212      217.96049      0.5          
   3269000  -685.99264      137.92569      220.57275      0.5          
   3270000  -685.75636     -5.9332899      218.48467      0.5          
   3271000  -685.30263     -75.072854      214.70697      0.5          
   3272000  -685.66561     -234.03999      217.08592      0.5          
   3273000  -686.12294     -52.85954       219.58172      0.5          
   3274000  -685.36317      57.097713      218.49826      0.5          
   3275000  -685.25469     -47.446421      217.04079      0.5          
   3276000  -685.33079     -119.48714      217.84841      0.5          
   3277000  -685.6595       186.27404      219.40209      0.5          
   3278000  -685.72704      67.481104      218.32411      0.5          
   3279000  -685.30017     -252.48344      220.63576      0.5          
   3280000  -685.29293     -101.05287      218.73054      0.5          
   3281000  -685.43233      6.5607812      219.03996      0.5          
   3282000  -685.3461      -12.651424      222.27952      0.5          
   3283000  -685.11136     -3.0731507      217.5107       0.5          
   3284000  -685.18208     -140.16922      221.77164      0.5          
   3285000  -685.229       -137.9822       222.94485      0.5          
   3286000  -685.20164      235.25411      220.60839      0.5          
   3287000  -685.02495      17.5484        218.23194      0.5          
   3288000  -684.84889     -141.62595      219.42814      0.5          
   3289000  -684.88371      16.657832      218.78162      0.5          
   3290000  -685.01156      22.97911       219.68138      0.5          
   3291000  -684.91867     -11.36769       220.19027      0.5          
   3292000  -684.91138     -29.01489       218.86093      0.5          
   3293000  -685.19565     -3.8842014      219.70974      0.5          
   3294000  -685.05844      56.973839      218.20558      0.5          
   3295000  -685.10989      28.486706      220.11026      0.5          
   3296000  -685.31279      94.801526      220.97229      0.5          
   3297000  -684.83378      114.19324      219.80567      0.5          
   3298000  -685.24051      96.25975       219.97562      0.5          
   3299000  -685.27265     -158.02627      221.60769      0.5          
   3300000  -685.25178     -165.86213      217.98636      0.5          
   3301000  -685.15035     -11.994039      219.58139      0.5          
   3302000  -685.18212     -77.680163      220.82858      0.5          
   3303000  -685.207       -14.871826      222.71342      0.5          
   3304000  -685.05889     -24.004554      221.88345      0.5          
   3305000  -684.99897     -259.33645      219.65697      0.5          
   3306000  -685.10921      70.999742      221.21445      0.5          
   3307000  -685.31421      81.488594      223.00216      0.5          
   3308000  -685.49438     -55.771011      222.16931      0.5          
   3309000  -685.3365      -150.48545      220.19145      0.5          
   3310000  -685.18994     -218.72773      220.01732      0.5          
   3311000  -685.18604      5.1955786      218.42717      0.5          
   3312000  -685.03725      79.532556      218.57672      0.5          
   3313000  -684.99184     -3.8395141      220.28099      0.5          
   3314000  -685.04689     -55.711504      219.70782      0.5          
   3315000  -684.86075     -0.76537415     219.51214      0.5          
   3316000  -684.99274      181.72577      221.08942      0.5          
   3317000  -685.35655      249.45285      219.15167      0.5          
   3318000  -685.28235     -83.203387      218.5202       0.5          
   3319000  -685.29593     -194.0039       219.72857      0.5          
   3320000  -685.3684      -48.857588      220.82606      0.5          
   3321000  -684.96617      95.375618      216.22913      0.5          
   3322000  -685.19647      142.82446      219.6863       0.5          
   3323000  -685.2015      -171.88599      220.49513      0.5          
   3324000  -684.9887       21.302853      218.56768      0.5          
   3325000  -685.02379     -264.56137      215.76025      0.5          
   3326000  -685.29382     -147.50437      220.89488      0.5          
   3327000  -685.09342      62.283822      220.71788      0.5          
   3328000  -685.08443      222.05322      217.25901      0.5          
   3329000  -684.85915      68.112836      217.79841      0.5          
   3330000  -685.17861     -9.0502621      218.45577      0.5          
   3331000  -685.45963      48.712443      220.52685      0.5          
   3332000  -685.31471     -230.94977      220.5466       0.5          
   3333000  -685.10644     -132.8033       217.69635      0.5          
   3334000  -685.1186       125.83032      218.56636      0.5          
   3335000  -685.22307      79.591641      218.28242      0.5          
   3336000  -685.15557      209.50851      220.70972      0.5          
   3337000  -684.99926     -14.715871      216.30572      0.5          
   3338000  -685.17216     -127.89415      220.12396      0.5          
   3339000  -684.81974     -223.16493      218.61224      0.5          
   3340000  -684.78224      57.395101      219.13008      0.5          
   3341000  -684.80765      117.34         220.327        0.5          
   3342000  -685.3094      -185.05988      223.30003      0.5          
   3343000  -685.01366      125.0647       219.80236      0.5          
   3344000  -684.49426      56.819559      218.15796      0.5          
   3345000  -684.67656      104.20623      219.79179      0.5          
   3346000  -684.80398     -145.34112      218.40155      0.5          
   3347000  -684.93056      120.84057      216.90321      0.5          
   3348000  -684.95919      288.59489      220.69231      0.5          
   3349000  -684.79814     -116.13692      216.12338      0.5          
   3350000  -684.95373      170.4004       219.17717      0.5          
   3351000  -684.76743     -182.33075      220.89204      0.5          
   3352000  -684.85513     -195.93103      219.15145      0.5          
   3353000  -685.22787     -86.503263      220.87051      0.5          
   3354000  -685.01278     -137.06682      218.24244      0.5          
   3355000  -684.86548     -65.380208      217.68644      0.5          
   3356000  -684.82718      12.434518      218.99897      0.5          
   3357000  -684.84662     -112.94422      219.73551      0.5          
   3358000  -684.91253     -166.20232      219.61579      0.5          
   3359000  -684.82776      190.0354       217.64043      0.5          
   3360000  -685.03813     -54.341937      220.35828      0.5          
   3361000  -684.8311       162.3054       221.25333      0.5          
   3362000  -684.94444      33.120711      220.38039      0.5          
   3363000  -684.90274      123.2613       219.55112      0.5          
   3364000  -684.80215     -25.142005      219.63198      0.5          
   3365000  -684.64355     -0.32436887     220.22986      0.5          
   3366000  -684.77962      47.470296      219.46556      0.5          
   3367000  -684.53296     -180.7652       221.34838      0.5          
   3368000  -684.63301      116.64618      216.8409       0.5          
   3369000  -684.70455      100.57596      218.62193      0.5          
   3370000  -684.78934     -91.455172      219.09117      0.5          
   3371000  -684.88244      102.3119       219.75083      0.5          
   3372000  -684.80052      297.22183      219.09207      0.5          
   3373000  -684.67423     -325.72295      219.47668      0.5          
   3374000  -684.7455      -83.368191      221.5028       0.5          
   3375000  -684.90572     -6.6388956      220.6144       0.5          
   3376000  -684.94412      48.862403      221.38225      0.5          
   3377000  -684.65966      58.746249      218.0582       0.5          
   3378000  -684.44065      53.174539      218.83633      0.5          
   3379000  -684.50594      6.1260771      220.99705      0.5          
   3380000  -684.42298     -3.9851135      219.93699      0.5          
   3381000  -684.72103      35.240948      220.81826      0.5          
   3382000  -684.41966     -72.659133      217.64847      0.5          
   3383000  -684.57421     -113.19888      219.92211      0.5          
   3384000  -684.37414      22.574351      220.27999      0.5          
   3385000  -684.25722      262.15969      216.95516      0.5          
   3386000  -684.29238      154.58997      221.45936      0.5          
   3387000  -684.22281     -231.99757      219.23901      0.5          
   3388000  -684.01572     -249.03009      218.43269      0.5          
   3389000  -683.9758       46.79379       220.10501      0.5          
   3390000  -684.08154      234.31224      220.30214      0.5          
   3391000  -684.61632      176.68039      218.81623      0.5          
   3392000  -684.51637     -344.96799      219.61659      0.5          
   3393000  -684.5032      -14.672166      218.93373      0.5          
   3394000  -684.10813      137.48515      219.15551      0.5          
   3395000  -684.2177       41.089757      218.83349      0.5          
   3396000  -684.30064      37.798303      219.08721      0.5          
   3397000  -684.23201     -38.978438      217.94844      0.5          
   3398000  -684.41025     -69.587813      221.32489      0.5          
   3399000  -684.3207       1.6703626      218.2743       0.5          
   3400000  -684.3478      -17.13647       219.16467      0.5          
   3401000  -684.14392     -95.27363       220.53118      0.5          
   3402000  -683.94794     -64.097569      217.1176       0.5          
   3403000  -684.08053      106.09025      218.27425      0.5          
   3404000  -683.99398     -152.68573      218.61927      0.5          
   3405000  -684.0738      -225.10494      221.01694      0.5          
   3406000  -684.20677     -22.800641      221.41073      0.5          
   3407000  -684.37163      386.21162      222.37589      0.5          
   3408000  -684.18178      66.932089      219.66104      0.5          
   3409000  -683.96239      33.623849      219.00814      0.5          
   3410000  -683.85847     -221.55938      219.00977      0.5          
   3411000  -684.08645      163.61105      218.53705      0.5          
   3412000  -683.92698      286.83558      218.76731      0.5          
   3413000  -683.66528      15.019389      218.93686      0.5          
   3414000  -683.69012     -231.44788      218.64906      0.5          
   3415000  -683.99528     -83.536132      219.02113      0.5          
   3416000  -683.76433     -23.87803       222.24554      0.5          
   3417000  -683.80292      156.44611      217.83413      0.5          
   3418000  -683.67818      135.46341      218.72064      0.5          
   3419000  -683.90075     -214.31309      218.61644      0.5          
   3420000  -683.81495      116.30912      217.96229      0.5          
   3421000  -683.75721     -99.288746      219.49233      0.5          
   3422000  -683.60171     -69.035783      216.69994      0.5          
   3423000  -683.80006      62.875067      219.29228      0.5          
   3424000  -683.77177     -62.983334      219.94493      0.5          
   3425000  -684.15113     -29.013351      220.34811      0.5          
   3426000  -683.78549      249.31261      221.24844      0.5          
   3427000  -683.6801       49.87402       218.08174      0.5          
   3428000  -683.63681     -22.741795      218.32824      0.5          
   3429000  -683.98012      94.718361      221.1716       0.5          
   3430000  -683.60269     -123.20417      217.12276      0.5          
   3431000  -683.79842     -222.14007      217.2763       0.5          
   3432000  -683.75587     -141.28761      217.32187      0.5          
   3433000  -683.78946     -64.99333       216.70211      0.5          
   3434000  -683.69055     -30.942291      218.378        0.5          
   3435000  -683.75192     -159.88157      220.74623      0.5          
   3436000  -683.89086      74.422375      220.33211      0.5          
   3437000  -683.84517      134.35358      217.40305      0.5          
   3438000  -683.87162      9.1705171      217.79         0.5          
   3439000  -683.88636     -183.61797      218.05995      0.5          
   3440000  -683.74385     -33.111533      219.82413      0.5          
   3441000  -684.00683      4.8402046      216.88934      0.5          
   3442000  -684.00724     -14.764078      218.18141      0.5          
   3443000  -683.98141      120.487        219.31345      0.5          
   3444000  -683.83365     -33.226776      216.37041      0.5          
   3445000  -683.85499     -15.560589      219.60222      0.5          
   3446000  -683.74663     -372.97754      219.01852      0.5          
   3447000  -683.81238      30.900211      217.94818      0.5          
   3448000  -684.14127      401.17986      218.98389      0.5          
   3449000  -683.93275      162.22548      219.44814      0.5          
   3450000  -683.75419     -44.997088      219.96228      0.5          
   3451000  -683.87674     -66.670669      218.52284      0.5          
   3452000  -683.99323      157.84073      220.63086      0.5          
   3453000  -684.56695      189.37384      223.62895      0.5          
   3454000  -683.87663     -61.387988      222.99473      0.5          
   3455000  -683.78059     -87.512836      220.40189      0.5          
   3456000  -683.92959     -18.030771      219.1573       0.5          
   3457000  -684.10746     -75.413896      222.83645      0.5          
   3458000  -684.01895     -331.19177      219.52349      0.5          
   3459000  -684.12733      105.36201      218.5292       0.5          
   3460000  -683.84616     -192.67828      220.24011      0.5          
   3461000  -683.90424     -279.09183      221.22933      0.5          
   3462000  -683.88392      261.00225      220.13105      0.5          
   3463000  -684.19162      64.280107      220.16205      0.5          
   3464000  -683.82014     -198.07073      221.00551      0.5          
   3465000  -683.78824      58.220677      219.56983      0.5          
   3466000  -683.77426      108.54296      218.15974      0.5          
   3467000  -683.71052     -74.309994      216.42178      0.5          
   3468000  -683.82074      184.88891      215.44693      0.5          
   3469000  -684.00673      93.732382      218.14624      0.5          
   3470000  -683.43952     -90.297878      219.52664      0.5          
   3471000  -683.61374     -28.567374      216.39361      0.5          
   3472000  -683.75007     -83.244722      217.4664       0.5          
   3473000  -684.02744      223.59103      216.76459      0.5          
   3474000  -684.11203      119.89087      217.90328      0.5          
   3475000  -684.06199     -144.68148      217.98962      0.5          
   3476000  -684.00421     -161.33454      218.39776      0.5          
   3477000  -683.91548     -41.218913      218.76674      0.5          
   3478000  -683.8806       310.57195      218.53356      0.5          
   3479000  -683.93655      165.28955      217.6215       0.5          
   3480000  -683.87865     -148.93564      217.7637       0.5          
   3481000  -683.93081      200.18403      220.32395      0.5          
   3482000  -683.86523      183.32461      219.14004      0.5          
   3483000  -683.87477     -55.99815       219.67372      0.5          
   3484000  -683.90923      186.56807      220.8131       0.5          
   3485000  -683.9795       248.62094      220.41681      0.5          
   3486000  -683.97408     -149.86732      219.387        0.5          
   3487000  -684.1206      -117.87921      220.72815      0.5          
   3488000  -684.33942      114.59994      221.04328      0.5          
   3489000  -684.17579      28.576613      218.40386      0.5          
   3490000  -683.73066      91.45697       218.06358      0.5          
   3491000  -683.65598     -13.412434      216.37474      0.5          
   3492000  -683.42902      132.89376      220.45065      0.5          
   3493000  -683.4246      -66.112102      218.71284      0.5          
   3494000  -683.4441      -262.56393      218.40601      0.5          
   3495000  -683.67967      54.451131      219.38487      0.5          
   3496000  -683.63892      359.26238      219.67662      0.5          
   3497000  -683.4738      -6.7444331      219.02949      0.5          
   3498000  -683.50399     -184.00833      219.611        0.5          
   3499000  -683.64959      136.26262      217.0604       0.5          
   3500000  -683.49752      27.741071      217.29504      0.5          
   3501000  -683.46465     -192.87429      222.07127      0.5          
   3502000  -683.5418      -160.08703      218.14108      0.5          
   3503000  -683.6046      -6.2707242      219.71932      0.5          
   3504000  -683.50317     -15.824022      219.44314      0.5          
   3505000  -683.6251      -37.500887      220.28169      0.5          
   3506000  -683.30069      0.023267513    217.15307      0.5          
   3507000  -683.07055      172.68322      217.0039       0.5          
   3508000  -683.69669      72.60189       218.94901      0.5          
   3509000  -683.74271     -617.92136      218.3012       0.5          
   3510000  -683.62987      46.408449      218.4814       0.5          
   3511000  -683.1973       137.50636      215.94919      0.5          
   3512000  -683.41278     -245.41186      215.23822      0.5          
   3513000  -683.70588      16.434948      218.09152      0.5          
   3514000  -683.66053     -61.636687      219.26374      0.5          
   3515000  -683.41868      90.763585      217.94977      0.5          
   3516000  -683.14967     -85.129284      218.29487      0.5          
   3517000  -683.21264     -224.84319      218.68688      0.5          
   3518000  -683.04044      204.55048      219.73809      0.5          
   3519000  -683.34065      153.51288      222.40034      0.5          
   3520000  -682.98447     -133.3329       218.40841      0.5          
   3521000  -683.13755      161.03989      220.77901      0.5          
   3522000  -683.21465      44.554381      219.04608      0.5          
   3523000  -683.32167     -4.0462403      217.53064      0.5          
   3524000  -683.14335      56.590933      217.79315      0.5          
   3525000  -683.01831     -208.22349      217.86557      0.5          
   3526000  -683.5232       137.43428      221.05923      0.5          
   3527000  -683.57026      208.3119       219.22872      0.5          
   3528000  -683.30347     -120.00625      221.42602      0.5          
   3529000  -683.52551      98.536853      222.95284      0.5          
   3530000  -683.45827      183.35584      220.52798      0.5          
   3531000  -683.45749      215.39324      219.30203      0.5          
   3532000  -683.24848      55.695986      220.22716      0.5          
   3533000  -683.15169     -53.931252      218.92192      0.5          
   3534000  -682.94045      20.181476      218.21718      0.5          
   3535000  -683.19271      121.26759      218.90506      0.5          
   3536000  -683.59583      108.24329      220.55611      0.5          
   3537000  -683.36053     -86.300266      218.07936      0.5          
   3538000  -683.08336     -25.019286      218.40717      0.5          
   3539000  -683.17261     -110.9661       219.53466      0.5          
   3540000  -683.20917      64.578194      217.70668      0.5          
   3541000  -683.54335      89.316839      217.73201      0.5          
   3542000  -683.35474     -70.790874      216.7143       0.5          
   3543000  -683.17511     -153.89263      217.45798      0.5          
   3544000  -683.39746      77.8319        219.77836      0.5          
   3545000  -683.49327      48.704848      218.95051      0.5          
   3546000  -683.49055     -282.75996      221.12373      0.5          
   3547000  -683.34598     -5.856127       219.88969      0.5          
   3548000  -683.34084     -10.850869      218.399        0.5          
   3549000  -683.22211     -33.097881      217.15666      0.5          
   3550000  -683.5414      -103.10863      219.54052      0.5          
   3551000  -683.56247     -299.93338      219.36846      0.5          
   3552000  -683.09791     -203.96684      219.1359       0.5          
   3553000  -683.28658      35.718752      220.39986      0.5          
   3554000  -683.14229      96.381224      218.33912      0.5          
   3555000  -683.46909      124.59945      218.72755      0.5          
   3556000  -683.20781     -214.61061      221.54564      0.5          
   3557000  -683.1648      -54.637068      219.35415      0.5          
   3558000  -683.16867      222.9655       218.2754       0.5          
   3559000  -683.36394     -296.74182      219.093        0.5          
   3560000  -683.53368     -79.547527      219.53578      0.5          
   3561000  -683.62518      178.98159      222.15262      0.5          
   3562000  -683.40211      6.6531157      219.01368      0.5          
   3563000  -683.49324     -246.18731      221.31163      0.5          
   3564000  -683.58437      83.579555      221.14086      0.5          
   3565000  -683.30872      105.88088      220.12936      0.5          
   3566000  -683.59639      32.759246      220.61877      0.5          
   3567000  -683.51301     -24.539476      219.82533      0.5          
   3568000  -683.64259      71.876469      221.71989      0.5          
   3569000  -683.67192      220.68604      220.24505      0.5          
   3570000  -683.27675     -86.769756      215.87813      0.5          
   3571000  -683.50055      189.90419      218.97906      0.5          
   3572000  -683.652        22.55971       218.41745      0.5          
   3573000  -683.51038      19.801835      216.98799      0.5          
   3574000  -683.32012     -148.55755      217.17721      0.5          
   3575000  -683.19908      104.56965      219.25263      0.5          
   3576000  -683.30865      30.960781      217.97699      0.5          
   3577000  -683.49821     -180.94466      219.87749      0.5          
   3578000  -683.54895      54.915391      220.41395      0.5          
   3579000  -683.67527     -62.317774      218.90471      0.5          
   3580000  -683.23811      42.323415      219.24077      0.5          
   3581000  -683.02546     -106.79312      216.93871      0.5          
   3582000  -683.54385     -117.7023       219.31471      0.5          
   3583000  -683.3464       49.606707      220.09505      0.5          
   3584000  -683.398       -94.888607      221.28088      0.5          
   3585000  -683.01262     -164.49027      217.17654      0.5          
   3586000  -683.45027     -192.01262      220.48246      0.5          
   3587000  -683.3769      -88.013194      221.52301      0.5          
   3588000  -683.75098      61.094193      219.31921      0.5          
   3589000  -683.4755      -71.727908      219.72006      0.5          
   3590000  -683.15615      297.5331       220.2413       0.5          
   3591000  -683.20073     -21.157621      218.01497      0.5          
   3592000  -683.39182     -4.2710849      223.99283      0.5          
   3593000  -683.46651     -136.42826      217.22708      0.5          
   3594000  -683.49797      151.51177      219.94683      0.5          
   3595000  -683.2147      -8.3966981      218.38018      0.5          
   3596000  -683.6713       23.165279      217.79785      0.5          
   3597000  -683.43629      63.061236      219.8792       0.5          
   3598000  -683.38072     -139.52516      218.73958      0.5          
   3599000  -683.13705     -18.756085      218.79236      0.5          
   3600000  -683.36772      180.40785      224.07059      0.5          
   3601000  -683.23394     -287.18526      220.79685      0.5          
   3602000  -683.1337       100.02997      215.2506       0.5          
   3603000  -683.43781      199.77349      217.7323       0.5          
   3604000  -683.43406     -71.287467      219.34182      0.5          
   3605000  -683.32101     -75.422142      220.89825      0.5          
   3606000  -683.30329      151.60499      219.63198      0.5          
   3607000  -683.13295     -81.233117      219.24476      0.5          
   3608000  -683.45801     -234.26067      218.241        0.5          
   3609000  -683.53424      109.02335      219.30721      0.5          
   3610000  -683.39591      191.80731      217.6605       0.5          
   3611000  -683.51465      16.420843      215.70619      0.5          
   3612000  -683.48103     -19.050953      218.03259      0.5          
   3613000  -683.42763     -22.590245      218.57385      0.5          
   3614000  -683.82441      75.877872      222.56352      0.5          
   3615000  -683.54084     -124.15268      221.45433      0.5          
   3616000  -683.39855      36.450868      217.65695      0.5          
   3617000  -683.51612      196.46603      216.24436      0.5          
   3618000  -683.52458     -77.711524      218.8825       0.5          
   3619000  -683.53584      43.277544      220.28877      0.5          
   3620000  -683.53051      163.93354      222.05277      0.5          
   3621000  -683.38329     -85.094672      219.11103      0.5          
   3622000  -683.63676      152.54409      220.22648      0.5          
   3623000  -683.44549     -170.22627      219.70214      0.5          
   3624000  -683.3913      -84.688148      219.92432      0.5          
   3625000  -683.36489     -98.656279      220.73403      0.5          
   3626000  -683.48377      130.90505      216.11019      0.5          
   3627000  -683.62316     -224.20167      223.45853      0.5          
   3628000  -683.36919     -32.450781      221.1757       0.5          
   3629000  -683.39597     -52.521209      218.72952      0.5          
   3630000  -683.35255      137.15715      217.08431      0.5          
   3631000  -683.67074      21.703549      221.75694      0.5          
   3632000  -683.80876     -86.21759       221.16623      0.5          
   3633000  -683.34469     -71.669803      218.82776      0.5          
   3634000  -683.14424      15.003727      221.63327      0.5          
   3635000  -683.28795     -33.684664      219.53711      0.5          
   3636000  -683.12085      28.58452       218.31129      0.5          
   3637000  -683.16442     -75.829906      220.35312      0.5          
   3638000  -683.15036     -138.98804      219.76894      0.5          
   3639000  -682.75434      161.97785      217.55458      0.5          
   3640000  -683.19645      55.874082      220.02654      0.5          
   3641000  -683.12961     -280.62454      219.70442      0.5          
   3642000  -683.27996     -136.08677      218.73617      0.5          
   3643000  -683.19885      24.199871      217.95426      0.5          
   3644000  -683.18447      85.2955        218.30094      0.5          
   3645000  -682.96111      91.979188      218.76881      0.5          
   3646000  -683.39386      175.68769      218.5659       0.5          
   3647000  -682.75597     -163.98046      217.59768      0.5          
   3648000  -683.04918     -68.493362      220.3094       0.5          
   3649000  -683.12555     -40.47941       219.79129      0.5          
   3650000  -683.16346      60.277216      219.58105      0.5          
   3651000  -682.9044       71.625086      218.2852       0.5          
   3652000  -683.05862      51.443765      218.29011      0.5          
   3653000  -683.13718      15.641959      219.84516      0.5          
   3654000  -683.07616      27.859756      220.72618      0.5          
   3655000  -682.82155      59.495392      219.06567      0.5          
   3656000  -682.8503       134.71206      217.99337      0.5          
   3657000  -683.01914     -122.07325      220.93468      0.5          
   3658000  -682.94779     -163.75672      218.44311      0.5          
   3659000  -683.03596      57.446802      220.27749      0.5          
   3660000  -682.76791      260.39241      220.32717      0.5          
   3661000  -682.96663     -62.078062      221.55217      0.5          
   3662000  -683.01143     -88.835401      221.48751      0.5          
   3663000  -683.19701     -170.82096      223.80381      0.5          
   3664000  -683.00029     -56.302592      220.10083      0.5          
   3665000  -683.00647      143.33076      218.03636      0.5          
   3666000  -682.9674       161.60309      220.11063      0.5          
   3667000  -683.34021      113.98373      219.69471      0.5          
   3668000  -682.90819      56.716644      222.15876      0.5          
   3669000  -682.81761     -148.74149      219.37976      0.5          
   3670000  -683.01784     -145.82099      220.9827       0.5          
   3671000  -682.85575     -122.94534      218.4279       0.5          
   3672000  -683.0803       89.113216      215.84383      0.5          
   3673000  -682.89954      127.42241      221.34711      0.5          
   3674000  -682.92181     -166.8108       217.81336      0.5          
   3675000  -682.91326      97.152153      216.98849      0.5          
   3676000  -682.92231     -58.627079      217.767        0.5          
   3677000  -682.81816     -128.4151       219.24627      0.5          
   3678000  -682.85726     -24.588664      218.24324      0.5          
   3679000  -682.97515     -62.691041      219.64352      0.5          
   3680000  -682.44704      139.77056      216.4874       0.5          
   3681000  -682.50784      336.70006      217.77819      0.5          
   3682000  -682.95588     -148.82046      219.44154      0.5          
   3683000  -682.7888      -212.76548      217.12825      0.5          
   3684000  -682.61419      143.83539      218.55234      0.5          
   3685000  -682.66038      176.51928      217.69648      0.5          
   3686000  -682.58936     -38.947868      218.13245      0.5          
   3687000  -682.69336      12.799821      218.19235      0.5          
   3688000  -682.48115      226.67094      219.2155       0.5          
   3689000  -682.51882      93.270152      219.6241       0.5          
   3690000  -682.48728     -156.10111      220.64988      0.5          
   3691000  -682.57827      38.272848      221.06118      0.5          
   3692000  -682.67317      282.01098      221.27326      0.5          
   3693000  -682.50327      107.3661       219.56423      0.5          
   3694000  -682.80912     -150.98495      220.68349      0.5          
   3695000  -682.55084     -156.97335      220.45925      0.5          
   3696000  -682.75771      122.14425      220.84344      0.5          
   3697000  -682.5333       250.21162      218.08484      0.5          
   3698000  -683.12596     -104.64349      221.45918      0.5          
   3699000  -682.89335     -110.29154      219.25193      0.5          
   3700000  -682.86019      109.53021      219.55661      0.5          
   3701000  -682.84299     -1.6726869      216.59456      0.5          
   3702000  -683.11461      285.1132       216.96223      0.5          
   3703000  -682.92606     -55.636502      216.51305      0.5          
   3704000  -682.86643     -27.589451      217.24985      0.5          
   3705000  -682.73519     -159.20721      218.09313      0.5          
   3706000  -682.65209      38.823039      219.90079      0.5          
   3707000  -682.78196      117.85389      221.77244      0.5          
   3708000  -682.63141      87.595394      220.21414      0.5          
   3709000  -682.5921       169.65179      219.58907      0.5          
   3710000  -682.62907     -262.99602      221.03162      0.5          
   3711000  -682.73326      54.981544      221.30457      0.5          
   3712000  -682.60228     -46.046348      219.77175      0.5          
   3713000  -682.52475      234.24035      221.18092      0.5          
   3714000  -682.32204      172.85717      218.61825      0.5          
   3715000  -682.37372     -24.394854      220.25324      0.5          
   3716000  -682.54195     -243.1079       219.46734      0.5          
   3717000  -682.25565     -2.5029842      218.7953       0.5          
   3718000  -682.24343      76.96504       221.51178      0.5          
   3719000  -682.1155      -28.625636      219.70142      0.5          
   3720000  -682.20564     -298.5951       220.74819      0.5          
   3721000  -682.23687     -156.31846      220.7149       0.5          
   3722000  -682.07998      285.63825      220.98681      0.5          
   3723000  -682.10315      142.88315      220.24077      0.5          
   3724000  -682.17812     -25.484587      221.45051      0.5          
   3725000  -682.12771      6.458934       219.33597      0.5          
   3726000  -681.92876     -53.129944      218.0532       0.5          
   3727000  -681.94992     -21.070698      218.75302      0.5          
   3728000  -682.16878      159.08229      220.17637      0.5          
   3729000  -682.49357     -90.341325      218.84561      0.5          
   3730000  -682.37383      103.90964      218.42289      0.5          
   3731000  -682.33995      36.241362      219.66123      0.5          
   3732000  -682.50525     -309.88663      218.8229       0.5          
   3733000  -682.48413     -289.03013      220.73114      0.5          
   3734000  -682.26508     -269.6446       217.25061      0.5          
   3735000  -682.38838     -107.1961       218.68137      0.5          
   3736000  -682.54807      273.9691       219.19452      0.5          
   3737000  -682.33488      6.1732707      217.82854      0.5          
   3738000  -682.11988     -179.66416      217.37576      0.5          
   3739000  -682.31754      126.62109      217.17388      0.5          
   3740000  -682.41861      64.800499      220.52327      0.5          
   3741000  -682.27609      21.133469      218.84162      0.5          
   3742000  -682.03715      324.53786      216.05532      0.5          
   3743000  -682.07704      83.838377      217.03184      0.5          
   3744000  -682.11058     -360.73532      218.25287      0.5          
   3745000  -682.27974     -92.479851      217.95768      0.5          
   3746000  -682.02406     -20.6639        216.76903      0.5          
   3747000  -682.20969     -284.11931      218.81687      0.5          
   3748000  -681.99713     -36.154512      218.01989      0.5          
   3749000  -681.94332      163.20319      218.58022      0.5          
   3750000  -682.30681     -11.480342      219.53051      0.5          
   3751000  -682.40576      85.447858      221.64508      0.5          
   3752000  -682.13505     -263.85024      217.82071      0.5          
   3753000  -681.81959     -38.224838      220.64903      0.5          
   3754000  -682.04898      181.46434      219.57773      0.5          
   3755000  -682.10736     -136.05918      222.45097      0.5          
   3756000  -682.222       -37.7384        221.87332      0.5          
   3757000  -682.08757      170.74891      219.11803      0.5          
   3758000  -681.98848      59.72132       219.8383       0.5          
   3759000  -681.98947     -35.500696      217.24729      0.5          
   3760000  -682.37375     -134.85381      218.89989      0.5          
   3761000  -682.30652      55.342794      220.53854      0.5          
   3762000  -682.23632     -29.710804      217.13221      0.5          
   3763000  -681.86028     -135.31602      217.97749      0.5          
   3764000  -682.19457     -52.277151      218.77767      0.5          
   3765000  -682.07567     -297.89901      218.33534      0.5          
   3766000  -682.0076      -128.33415      218.38242      0.5          
   3767000  -682.11349      15.573183      218.03941      0.5          
   3768000  -682.00277     -134.67151      217.26692      0.5          
   3769000  -682.4655      -146.92512      219.76636      0.5          
   3770000  -681.95426      222.17238      220.14566      0.5          
   3771000  -682.34931     -109.15756      218.2287       0.5          
   3772000  -682.39998     -189.63169      218.8995       0.5          
   3773000  -682.13823      64.801733      218.64227      0.5          
   3774000  -682.01577      130.83         219.44935      0.5          
   3775000  -682.33463      29.592955      218.34023      0.5          
   3776000  -682.40729     -98.474882      218.46584      0.5          
   3777000  -682.28869      52.223789      219.86562      0.5          
   3778000  -682.13888     -181.66381      219.47501      0.5          
   3779000  -682.41153     -184.58642      220.92029      0.5          
   3780000  -682.20872     -192.3955       218.73883      0.5          
   3781000  -682.47072      208.96248      218.72434      0.5          
   3782000  -682.02252     -120.37437      219.72122      0.5          
   3783000  -681.84105     -103.5974       220.59073      0.5          
   3784000  -681.85016      5.3432821      217.88103      0.5          
   3785000  -682.16045      346.66092      219.57029      0.5          
   3786000  -681.88248      110.23282      222.42518      0.5          
   3787000  -681.67428     -171.20897      221.26506      0.5          
   3788000  -681.49341      18.0157        215.37562      0.5          
   3789000  -681.6472      -80.877862      219.45594      0.5          
   3790000  -681.69491     -147.88961      218.73894      0.5          
   3791000  -681.43061      224.67316      221.33293      0.5          
   3792000  -681.54888     -68.40724       220.96618      0.5          
   3793000  -681.29269     -40.702495      220.02907      0.5          
   3794000  -681.7364       25.614827      218.29008      0.5          
   3795000  -681.61539      26.406265      217.8561       0.5          
   3796000  -682.10963     -113.05604      220.37662      0.5          
   3797000  -682.05513      220.79129      219.83621      0.5          
   3798000  -681.73242      156.0898       217.47305      0.5          
   3799000  -681.88913     -183.98089      216.90107      0.5          
   3800000  -681.85562      16.879552      218.25878      0.5          
   3801000  -681.86089     -2.3722736      217.37787      0.5          
   3802000  -681.75304      60.667498      217.9127       0.5          
   3803000  -682.06204      27.254703      217.87854      0.5          
   3804000  -682.00145     -98.718375      219.19163      0.5          
   3805000  -681.72441     -97.606947      218.87657      0.5          
   3806000  -681.65583      74.793781      216.74232      0.5          
   3807000  -681.60551      3.9276813      219.05492      0.5          
   3808000  -681.96967      2.034596       216.91758      0.5          
   3809000  -681.6926       106.84867      217.58395      0.5          
   3810000  -681.48403     -118.81898      218.62104      0.5          
   3811000  -681.61497     -289.5477       218.36864      0.5          
   3812000  -681.83819      16.356941      219.44109      0.5          
   3813000  -681.81233      214.68798      214.92878      0.5          
   3814000  -681.60121     -53.123857      218.88046      0.5          
   3815000  -681.35985     -72.725336      218.90744      0.5          
   3816000  -681.88809     -195.96252      219.46056      0.5          
   3817000  -681.68954     -31.496859      219.38807      0.5          
   3818000  -681.42836      320.04191      221.38503      0.5          
   3819000  -681.38135      46.966856      220.62896      0.5          
   3820000  -681.55646     -171.09737      220.80869      0.5          
   3821000  -681.80336      51.105333      222.60539      0.5          
   3822000  -681.67726      33.610902      223.16491      0.5          
   3823000  -681.30504     -230.65042      219.04008      0.5          
   3824000  -681.26423      23.464156      219.2415       0.5          
   3825000  -681.65013      152.38144      222.18963      0.5          
   3826000  -681.59255     -214.63661      221.08597      0.5          
   3827000  -681.21717      263.34531      221.4321       0.5          
   3828000  -681.13921      79.672704      218.69276      0.5          
   3829000  -681.29825     -371.87854      220.41152      0.5          
   3830000  -681.32955      72.956621      221.51183      0.5          
   3831000  -680.9643       72.10866       218.03169      0.5          
   3832000  -680.78229     -70.608575      214.59515      0.5          
   3833000  -681.28866      63.496358      218.90629      0.5          
   3834000  -681.40124     -58.945605      221.21391      0.5          
   3835000  -681.12345     -16.022223      219.63875      0.5          
   3836000  -680.9587       48.234032      219.77642      0.5          
   3837000  -681.12477     -218.89822      218.9484       0.5          
   3838000  -681.1893      -124.70801      217.51516      0.5          
   3839000  -681.28632     -144.74714      223.00121      0.5          
   3840000  -681.15395      137.72534      221.1359       0.5          
   3841000  -680.985        103.91773      216.70183      0.5          
   3842000  -681.20257     -242.41         218.78347      0.5          
   3843000  -681.19075     -141.73231      217.82017      0.5          
   3844000  -681.07667      140.99425      219.20478      0.5          
   3845000  -680.99389     -97.96288       219.98673      0.5          
   3846000  -680.76832     -53.807418      216.70636      0.5          
   3847000  -681.21168      17.295175      221.93277      0.5          
   3848000  -681.38569     -114.99783      219.21129      0.5          
   3849000  -681.19724     -14.206851      218.19451      0.5          
   3850000  -680.84506      166.25255      218.52903      0.5          
   3851000  -680.79013     -293.00583      217.91767      0.5          
   3852000  -680.8609      -246.99982      219.90895      0.5          
   3853000  -680.75613      175.04188      218.02666      0.5          
   3854000  -681.15881     -78.544336      219.71074      0.5          
   3855000  -680.90281      25.986037      217.88624      0.5          
   3856000  -680.60294      198.43566      215.26869      0.5          
   3857000  -681.0453      -45.810495      223.70618      0.5          
   3858000  -681.30903     -81.451861      221.02844      0.5          
   3859000  -680.95304      65.594751      222.43972      0.5          
   3860000  -680.64996     -137.21909      220.56016      0.5          
   3861000  -680.77919     -2.6739981      223.18482      0.5          
   3862000  -680.67532      209.28934      220.4755       0.5          
   3863000  -680.81417      219.39769      216.31844      0.5          
   3864000  -680.88346      20.201004      219.67718      0.5          
   3865000  -680.82305      20.688579      219.92701      0.5          
   3866000  -680.99159      53.16306       221.56761      0.5          
   3867000  -680.85888      431.92794      216.86521      0.5          
   3868000  -680.78364      1.9070704      219.46446      0.5          
   3869000  -680.70195     -95.00733       216.86431      0.5          
   3870000  -680.84846      333.82139      220.79289      0.5          
   3871000  -680.91468      13.926208      221.00544      0.5          
   3872000  -680.95685     -106.61078      222.02349      0.5          
   3873000  -681.06704      322.3227       219.29757      0.5          
   3874000  -680.81178      44.965127      219.76975      0.5          
   3875000  -680.79938     -22.453855      221.99391      0.5          
   3876000  -680.87596     -53.328499      221.04866      0.5          
   3877000  -681.17286     -62.268667      218.54776      0.5          
   3878000  -680.85409      123.41774      219.78726      0.5          
   3879000  -681.01491     -94.407468      216.87956      0.5          
   3880000  -680.9939      -215.1937       218.67422      0.5          
   3881000  -681.00226     -53.13879       218.02811      0.5          
   3882000  -681.36629      80.735276      221.23738      0.5          
   3883000  -681.39384      39.61168       218.49834      0.5          
   3884000  -681.19961     -106.43789      216.76224      0.5          
   3885000  -680.96142     -304.23558      216.61822      0.5          
   3886000  -681.32775      221.20692      219.56678      0.5          
   3887000  -681.23252      118.09306      218.63178      0.5          
   3888000  -681.14095     -315.49627      217.95448      0.5          
   3889000  -681.02985     -299.14069      218.83293      0.5          
   3890000  -681.25587      108.50573      216.9976       0.5          
   3891000  -681.58697     -125.84069      222.26447      0.5          
   3892000  -681.27451      41.316257      218.44296      0.5          
   3893000  -681.31223     -33.479035      220.16149      0.5          
   3894000  -681.31407     -55.824429      217.76214      0.5          
   3895000  -681.31084      59.886781      221.59276      0.5          
   3896000  -681.4326      -250.65646      221.8041       0.5          
   3897000  -681.31506      73.012231      218.95464      0.5          
   3898000  -681.38225      382.79209      219.38338      0.5          
   3899000  -681.37581      5.7572338      217.88697      0.5          
   3900000  -681.42983     -53.515545      220.61808      0.5          
   3901000  -681.09639      49.249619      218.48115      0.5          
   3902000  -681.07621     -0.82636362     220.99317      0.5          
   3903000  -680.95652     -69.465083      220.10597      0.5          
   3904000  -681.01661      118.23786      220.36153      0.5          
   3905000  -681.28191     -91.245952      221.57022      0.5          
   3906000  -681.13974     -120.80431      219.40039      0.5          
   3907000  -681.06513     -97.009851      217.25595      0.5          
   3908000  -680.96208      430.06628      219.08281      0.5          
   3909000  -681.25101     -255.22872      219.2222       0.5          
   3910000  -681.21127      12.888615      220.10406      0.5          
   3911000  -681.09442      150.79372      218.31315      0.5          
   3912000  -681.20535      104.32287      220.2819       0.5          
   3913000  -681.39897     -65.425055      219.54794      0.5          
   3914000  -681.45794     -354.69811      218.50174      0.5          
   3915000  -681.35168     -249.58286      219.12203      0.5          
   3916000  -681.14031      356.8377       219.12942      0.5          
   3917000  -681.32445     -153.97869      218.76308      0.5          
   3918000  -681.32598     -174.84279      221.18187      0.5          
   3919000  -681.30266     -43.853301      221.53832      0.5          
   3920000  -681.20628      160.02577      218.97762      0.5          
   3921000  -681.16631      133.22975      220.74412      0.5          
   3922000  -681.27493     -85.762227      219.14492      0.5          
   3923000  -681.18187     -108.06265      220.40526      0.5          
   3924000  -680.94746      215.20776      218.33832      0.5          
   3925000  -680.85751      120.95904      217.85179      0.5          
   3926000  -681.23458      136.74036      218.98798      0.5          
   3927000  -681.18966     -105.05749      221.04041      0.5          
   3928000  -680.93072     -42.784411      216.11451      0.5          
   3929000  -680.78047      147.3093       217.95235      0.5          
   3930000  -681.005       -45.6202        219.29941      0.5          
   3931000  -681.24127     -70.088207      221.76537      0.5          
   3932000  -681.16405      223.51548      219.74668      0.5          
   3933000  -680.97226      63.172594      220.14102      0.5          
   3934000  -680.88363     -149.02643      220.2439       0.5          
   3935000  -681.05554      53.322985      220.58051      0.5          
   3936000  -681.09428      142.46771      220.39465      0.5          
   3937000  -681.13339     -107.94674      218.9144       0.5          
   3938000  -681.01971     -93.566348      219.21976      0.5          
   3939000  -681.28263     -131.98102      219.17949      0.5          
   3940000  -681.33631      107.81477      220.18872      0.5          
   3941000  -680.93339      203.94047      221.69919      0.5          
   3942000  -680.88426     -97.892275      219.49478      0.5          
   3943000  -680.96427     -11.227422      220.65523      0.5          
   3944000  -680.98048      125.84254      221.08167      0.5          
   3945000  -681.42713     -68.565764      221.93549      0.5          
   3946000  -680.8955      -272.66966      220.50767      0.5          
   3947000  -680.99724      3.4494411      222.51306      0.5          
   3948000  -681.08919      102.26585      218.28593      0.5          
   3949000  -681.31584      111.86323      221.44253      0.5          
   3950000  -681.08464     -112.14684      220.84189      0.5          
   3951000  -680.77045      33.551915      220.60281      0.5          
   3952000  -680.87298      241.52792      219.33667      0.5          
   3953000  -681.09034     -25.211121      222.61259      0.5          
   3954000  -681.06876     -40.486015      221.5999       0.5          
   3955000  -681.02775      32.155889      220.668        0.5          
   3956000  -680.74788      218.45282      222.46459      0.5          
   3957000  -680.76209      223.82038      218.31826      0.5          
   3958000  -680.76884      49.571248      222.60194      0.5          
   3959000  -680.87466     -170.69939      220.1084       0.5          
   3960000  -680.68484      0.48584307     220.64278      0.5          
   3961000  -680.67162     -122.32963      217.4939       0.5          
   3962000  -680.69079     -85.628817      218.89423      0.5          
   3963000  -680.57641      140.7282       218.62266      0.5          
   3964000  -680.642       -71.57419       220.74944      0.5          
   3965000  -680.93171     -86.0746        216.88352      0.5          
   3966000  -680.85368     -56.630081      218.73608      0.5          
   3967000  -681.13499     -119.1588       217.59264      0.5          
   3968000  -680.90891      21.75623       217.28208      0.5          
   3969000  -681.03869     -219.5979       217.84225      0.5          
   3970000  -681.02425     -205.53345      217.28814      0.5          
   3971000  -681.19511      89.202646      216.15819      0.5          
   3972000  -681.50011     -148.11401      216.40522      0.5          
   3973000  -681.18206     -384.28448      220.44417      0.5          
   3974000  -680.89376      151.76593      218.56499      0.5          
   3975000  -680.95719     -12.680788      217.20615      0.5          
   3976000  -681.11664     -158.73682      217.94732      0.5          
   3977000  -681.23824     -10.486183      219.78502      0.5          
   3978000  -681.1554       100.47253      220.86261      0.5          
   3979000  -680.85269      55.42178       217.93425      0.5          
   3980000  -681.28416      93.715142      220.22362      0.5          
   3981000  -681.25168     -102.40161      221.08954      0.5          
   3982000  -681.49467     -221.3153       219.76868      0.5          
   3983000  -681.47052     -73.424662      219.02091      0.5          
   3984000  -681.22494      92.226768      221.95397      0.5          
   3985000  -681.11125      224.4548       222.45428      0.5          
   3986000  -681.11961      0.98350095     220.97325      0.5          
   3987000  -681.188       -187.15195      223.24164      0.5          
   3988000  -680.78941     -296.66325      218.73659      0.5          
   3989000  -680.9205       171.68244      221.54772      0.5          
   3990000  -681.32702      119.93143      221.09067      0.5          
   3991000  -681.28006      34.225473      224.00238      0.5          
   3992000  -681.10934      156.90173      221.26895      0.5          
   3993000  -680.99633     -87.167981      220.31652      0.5          
   3994000  -681.39746     -124.83316      221.4969       0.5          
   3995000  -680.93925      46.596638      221.33327      0.5          
   3996000  -680.97136     -94.101004      222.27166      0.5          
   3997000  -680.84589     -234.34875      217.91614      0.5          
   3998000  -681.04257      4.0523196      220.82705      0.5          
   3999000  -681.07832      155.27753      222.36013      0.5          
   4000000  -680.78508      85.869731      222.68361      0.5          
Loop time of 8213.17 on 16 procs for 2000000 steps with 7050 atoms

Performance: 10.520 ns/day, 2.281 hours/ns, 243.511 timesteps/s, 1.717 Matom-step/s
99.4% CPU use with 16 MPI tasks x 1 OpenMP threads

MPI task timing breakdown:
Section |  min time  |  avg time  |  max time  |%varavg| %total
---------------------------------------------------------------
Pair    | 3571.8     | 5391.4     | 6361.8     |1343.8 | 65.64
Bond    | 24.159     | 25.338     | 26.369     |  12.5 |  0.31
Kspace  | 1248.2     | 2314.6     | 4162.3     |2105.6 | 28.18
Neigh   | 52.399     | 52.685     | 53.06      |   2.6 |  0.64
Comm    | 256        | 336.96     | 450.48     | 329.6 |  4.10
Output  | 0.49411    | 0.57333    | 1.6909     |  38.1 |  0.01
Modify  | 68.664     | 81.309     | 105.03     | 148.0 |  0.99
Other   |            | 10.34      |            |       |  0.13

Nlocal:        440.625 ave         471 max         412 min
Histogram: 2 2 0 2 2 4 0 1 1 2
Nghost:        6284.44 ave        7499 max        5073 min
Histogram: 8 0 0 0 0 0 0 0 0 8
Neighs:         192509 ave      221512 max      133590 min
Histogram: 2 2 0 0 0 0 0 2 6 4

Total # of neighbors = 3080139
Ave neighs/atom = 436.89915
Ave special neighs/atom = 2
Neighbor list builds = 8180
Dangerous builds = 0

unfix           COM_DRIFT
unfix           NVE
unfix           CPU_BALANCE
unfix           dens_profile
unfix           1
unfix           2
unfix           3

write_data      ${NAME}_final.data
write_data      CO2_final.data
System init for write_data ...
PPPM initialization ...
  using 12-bit tables for long-range coulomb (src/kspace.cpp:342)
  G vector (1/distance) = 0.20169663
  grid = 24 24 80
  stencil order = 5
  estimated absolute RMS force accuracy = 0.00286774
  estimated relative force accuracy = 8.6361139e-06
  using single precision FFTW3
  3d grid and FFT values/proc = 19855 6912
Generated 1 of 1 mixed pair_coeff terms from arithmetic mixing rule
Last active /omp style is kspace_style pppm/omp
reset_timestep  0

quit
