units		    real
atom_style	    full
boundary        p p p
pair_style      lj/cut/coul/long 14
pair_modify     shift yes mix arithmetic tail no
kspace_style    pppm 1e-5
bond_style      harmonic
angle_style     harmonic
processors      2 2 *

#----------------------------------------------------------------------------#
#                               Variables
#----------------------------------------------------------------------------#

variable  TEMP_INDEX       equal 220
variable  simulationTemp   equal ${TEMP_INDEX}
variable  simulationTemp   equal 220
variable  timestep         equal 0.5
variable  RandomSeed       equal 1000
variable  Seed_L           equal ${RandomSeed}*7
variable  Seed_L           equal 1000*7
variable  Seed_V1          equal ${RandomSeed}*2
variable  Seed_V1          equal 1000*2
variable  Seed_V2          equal ${RandomSeed}*5
variable  Seed_V2          equal 1000*5

variable  nz_bin           equal 100
variable  bin_size         equal 1/${nz_bin}
variable  bin_size         equal 1/100
variable  restartfreq      equal 2000000        # 1 ns
variable  balance_freq     equal 8000000        # 4 ns
variable  thermo_num       equal 1000
variable  Lz               equal lz
variable  TEMPERATURE      equal temp
variable  PRESSURE         equal press
variable  KE               equal ke
variable  PE               equal pe
variable  TOT_ENG          equal etotal
variable  ECOUPLE          equal ecouple
variable  ECONSERVE        equal econserve

variable  Nnvt             equal 200000     # 1 ns

#----------------------------------------------------------------------------#
#                        Simulation cell creation
#----------------------------------------------------------------------------#

region          box block 0 40 0 40 0 240

create_box      2 box                                       bond/types 1                                angle/types 1                               extra/bond/per/atom 2                       extra/angle/per/atom 1                      extra/special/per/atom 2
Created orthogonal box = (0 0 0) to (40 40 240)
  2 by 2 by 2 MPI processor grid

molecule        co2mol CO2.mol
Read molecule template co2mol:
# CO2 molecule file. TraPPE-Flex model.
  1 molecules
  0 fragments
  3 atoms with max type 2
  2 bonds with max type 1
  1 angles with max type 1
  0 dihedrals with max type 0
  0 impropers with max type 0
print           "Molecule file loaded successfully"
Molecule file loaded successfully

region          liquid  block 0 40 0 40 75 165
region          vapor_1 block 0 40 0 40 0 75
region          vapor_2 block 0 40 0 40 165 240

create_atoms   	0 random 2298 ${Seed_L}  liquid  mol co2mol 3 overlap 2 maxtry 10000
create_atoms   	0 random 2298 7000  liquid  mol co2mol 3 overlap 2 maxtry 10000
Created 6894 atoms
  using lattice units in orthogonal box = (0 0 0) to (40 40 240)
  create_atoms CPU = 0.262 seconds
create_atoms   	0 random 26 ${Seed_V1} vapor_1 mol co2mol 3 overlap 2 maxtry 10000
create_atoms   	0 random 26 2000 vapor_1 mol co2mol 3 overlap 2 maxtry 10000
Created 78 atoms
  using lattice units in orthogonal box = (0 0 0) to (40 40 240)
  create_atoms CPU = 0.001 seconds
create_atoms   	0 random 26 ${Seed_V2} vapor_2 mol co2mol 3 overlap 2 maxtry 10000
create_atoms   	0 random 26 5000 vapor_2 mol co2mol 3 overlap 2 maxtry 10000
Created 78 atoms
  using lattice units in orthogonal box = (0 0 0) to (40 40 240)
  create_atoms CPU = 0.001 seconds

include         trappe_flex.FF
#----------------------------------------------------------------------------#
# FORCEFIELD - TraPPE Flexible model for CO2 (DOI- 10.1021/acs.jced.9b00006)
#----------------------------------------------------------------------------#

pair_coeff      1   1  0.0536545107   2.8         # O=[C]=O
pair_coeff      2   2  0.1569891239   3.05        # [O]=C=O

bond_coeff      1   1028.266  1.16

angle_coeff     1   55.96  180

mass            1   12.010700                     # C
mass            2   15.999400                     # O

set type        1   charge     +0.7000            # C
Setting atom values ...
  2350 settings made for charge
set type        2   charge     -0.3500            # O
Setting atom values ...
  4700 settings made for charge
# read_restart   restart_CO2.2

print           "lz=${Lz}"
lz=240

#----------------------------------------------------------------------------#
#                           GROUPS / NEIGHBOUR-LIST / BALANCE
#----------------------------------------------------------------------------#

group           car  type 1
2350 atoms in group car
group           oxy  type 2
4700 atoms in group oxy

neighbor	    3.0 bin
neigh_modify    every 1 delay 0 check yes
run_style       verlet
balance         0.8 shift xyz 20 1.2 out tmp.balance
Balancing ...
PPPM initialization ...
  using 12-bit tables for long-range coulomb (src/kspace.cpp:342)
  G vector (1/distance) = 0.20169663
  grid = 24 24 80
  stencil order = 5
  estimated absolute RMS force accuracy = 0.00286774
  estimated relative force accuracy = 8.6361139e-06
  using single precision FFTW3
  3d grid and FFT values/proc = 16606 5760
Generated 1 of 1 mixed pair_coeff terms from arithmetic mixing rule
Last active /omp style is kspace_style pppm/omp
Neighbor list info ...
  update: every = 1 steps, delay = 0 steps, check = yes
  max neighbors/atom: 2000, page size: 100000
  master list distance cutoff = 17
  ghost atom cutoff = 17
  binsize = 8.5, bins = 5 5 29
  1 neighbor lists, perpetual/occasional/extra = 1 0 0
  (1) pair lj/cut/coul/long/omp, perpetual
      attributes: half, newton on, omp
      pair build: half/bin/newton/omp
      stencil: half/bin/3d
      bin: standard
 rebalancing time: 0.007 seconds
  iteration count = 4
  initial/final maximal load/proc = 918 962
  initial/final imbalance factor  = 1.0417021 1.0916312
  x cuts: 0 0.46875 1
  y cuts: 0 0.5 1
  z cuts: 0 0.5 1

#----------------------------------------------------------------------------#
#                           CONGUGATE-GRADIENT MINIMIZATION/Initialization
#----------------------------------------------------------------------------#

minimize        1e-6 1e-8 100000 10000000
PPPM initialization ...
  using 12-bit tables for long-range coulomb (src/kspace.cpp:342)
  G vector (1/distance) = 0.20169663
  grid = 24 24 80
  stencil order = 5
  estimated absolute RMS force accuracy = 0.00286774
  estimated relative force accuracy = 8.6361139e-06
  using single precision FFTW3
  3d grid and FFT values/proc = 17480 6240
Generated 1 of 1 mixed pair_coeff terms from arithmetic mixing rule
Last active /omp style is kspace_style pppm/omp
Per MPI rank memory allocation (min/avg/max) = 10.49 | 10.74 | 10.98 Mbytes
   Step          Temp          E_pair         E_mol          TotEng         Press     
         0   0              49336.872      7.9026918e-12  49336.872      43177.231    
      1960   0             -11747.685      21.665769     -11726.02      -404.62692    
Loop time of 49.3149 on 8 procs for 1960 steps with 7050 atoms

99.5% CPU use with 8 MPI tasks x 1 OpenMP threads

Minimization stats:
  Stopping criterion = energy tolerance
  Energy initial, next-to-last, final = 
      49336.8715484438  -11726.0079152313  -11726.0195228993
  Force two-norm initial, final = 12256.268 5.8693544
  Force max component initial, final = 805.65186 1.6694694
  Final line search alpha, max atom move = 0.071027032 0.11857746
  Iterations, force evaluations = 1960 3856

MPI task timing breakdown:
Section |  min time  |  avg time  |  max time  |%varavg| %total
---------------------------------------------------------------
Pair    | 30.3       | 35.782     | 44.175     |  72.3 | 72.56
Bond    | 0.098726   | 0.10461    | 0.1155     |   1.8 |  0.21
Kspace  | 3.8602     | 12.276     | 17.779     | 123.6 | 24.89
Neigh   | 0.35674    | 0.35741    | 0.35812    |   0.1 |  0.72
Comm    | 0.61614    | 0.63731    | 0.66825    |   2.2 |  1.29
Output  | 0          | 0          | 0          |   0.0 |  0.00
Modify  | 0.02769    | 0.033776   | 0.037049   |   1.6 |  0.07
Other   |            | 0.1234     |            |       |  0.25

Nlocal:         881.25 ave         983 max         821 min
Histogram: 2 2 0 1 1 0 0 0 1 1
Nghost:        8237.12 ave        8743 max        7753 min
Histogram: 2 0 0 1 1 0 2 0 1 1
Neighs:         462201 ave      567293 max      397371 min
Histogram: 2 1 0 2 1 0 0 1 0 1

Total # of neighbors = 3697610
Ave neighs/atom = 524.48369
Ave special neighs/atom = 2
Neighbor list builds = 25
Dangerous builds = 0
fix             COM_DRIFT all momentum 1 linear 1 1 1 rescale
velocity        all create ${simulationTemp} ${RandomSeed} mom yes rot yes dist gaussian
velocity        all create 220 ${RandomSeed} mom yes rot yes dist gaussian
velocity        all create 220 1000 mom yes rot yes dist gaussian
velocity        all zero linear
velocity        all zero angular
thermo_style    custom step etotal press temp dt
thermo_modify   flush yes
thermo          ${thermo_num}
thermo          1000
reset_timestep  0
write_data      ${NAME}_init.data
write_data      CO2_init.data
System init for write_data ...
PPPM initialization ...
  using 12-bit tables for long-range coulomb (src/kspace.cpp:342)
  G vector (1/distance) = 0.20169663
  grid = 24 24 80
  stencil order = 5
  estimated absolute RMS force accuracy = 0.00286774
  estimated relative force accuracy = 8.6361139e-06
  using single precision FFTW3
  3d grid and FFT values/proc = 17480 6240
Generated 1 of 1 mixed pair_coeff terms from arithmetic mixing rule
Last active /omp style is kspace_style pppm/omp

#----------------------------------------------------------------------------#
#                           Compute
#----------------------------------------------------------------------------#

compute         layers  all chunk/atom bin/1d z lower ${bin_size} units reduced
compute         layers  all chunk/atom bin/1d z lower 0.01 units reduced
compute         T       all temp
compute         pTensor all pressure T
compute         mom     all momentum

variable        TM      equal mass(all)
variable        vx_com  equal c_mom[1]/v_TM
variable        vy_com  equal c_mom[2]/v_TM
variable        vz_com  equal c_mom[3]/v_TM

#----------------------------------------------------------------------------#
#                           Write Headers to Files
#----------------------------------------------------------------------------#

print "#Step Pxx Pyy Pzz" file pressure_tensor.dat
#Step Pxx Pyy Pzz
print "#Step temp press ke pe etotal ecouple econserve" file Energy.dat
#Step temp press ke pe etotal ecouple econserve
print "#Step px py pz COM_vx COM_vy COM_vz" file Momentum.dat
#Step px py pz COM_vx COM_vy COM_vz

#----------------------------------------------------------------------------#
#                           NVT (Initialization/Production)
#----------------------------------------------------------------------------#

fix             NVE          all    nve
fix             NVT          all    temp/csvr  ${simulationTemp} ${simulationTemp} 100 ${RandomSeed}
fix             NVT          all    temp/csvr  220 ${simulationTemp} 100 ${RandomSeed}
fix             NVT          all    temp/csvr  220 220 100 ${RandomSeed}
fix             NVT          all    temp/csvr  220 220 100 1000
fix             CPU_BALANCE  all    balance    ${balance_freq} 0.8 shift xyz 20 1.2
fix             CPU_BALANCE  all    balance    8000000 0.8 shift xyz 20 1.2
fix		        dens_profile all    ave/chunk  10 100 1000 layers density/mass file massdens_profile.dat
fix             1            all    ave/time   10 100 1000 c_pTensor[1] c_pTensor[2] c_pTensor[3] file pressure_tensor.dat
fix             2            all    ave/time   ${thermo_num} 1 ${thermo_num} v_TEMPERATURE v_PRESSURE v_KE v_PE v_TOT_ENG v_ECOUPLE v_ECONSERVE file Energy.dat
fix             2            all    ave/time   1000 1 ${thermo_num} v_TEMPERATURE v_PRESSURE v_KE v_PE v_TOT_ENG v_ECOUPLE v_ECONSERVE file Energy.dat
fix             2            all    ave/time   1000 1 1000 v_TEMPERATURE v_PRESSURE v_KE v_PE v_TOT_ENG v_ECOUPLE v_ECONSERVE file Energy.dat
fix             3            all    ave/time   ${thermo_num} 1 ${thermo_num} c_mom[1] c_mom[2] c_mom[3] v_vx_com v_vy_com v_vz_com file Momentum.dat
fix             3            all    ave/time   1000 1 ${thermo_num} c_mom[1] c_mom[2] c_mom[3] v_vx_com v_vy_com v_vz_com file Momentum.dat
fix             3            all    ave/time   1000 1 1000 c_mom[1] c_mom[2] c_mom[3] v_vx_com v_vy_com v_vz_com file Momentum.dat

timestep        0.5
restart         ${restartfreq} restart_${NAME}.1 restart_${NAME}.2
restart         2000000 restart_${NAME}.1 restart_${NAME}.2
restart         2000000 restart_CO2.1 restart_${NAME}.2
restart         2000000 restart_CO2.1 restart_CO2.2
run             ${Nnvt}
run             200000
PPPM initialization ...
  using 12-bit tables for long-range coulomb (src/kspace.cpp:342)
  G vector (1/distance) = 0.20169663
  grid = 24 24 80
  stencil order = 5
  estimated absolute RMS force accuracy = 0.00286774
  estimated relative force accuracy = 8.6361139e-06
  using single precision FFTW3
  3d grid and FFT values/proc = 17480 6240
Generated 1 of 1 mixed pair_coeff terms from arithmetic mixing rule
Last active /omp style is kspace_style pppm/omp
Per MPI rank memory allocation (min/avg/max) = 10.03 | 10.21 | 10.46 Mbytes
   Step         TotEng         Press           Temp            Dt      
         0  -7103.4389      145.65611      220            0.5          
      1000  -3070.1671      1129.0207      216.06177      0.5          
      2000  -2459.4081      1342.6451      198.27941      0.5          
      3000  -2025.357      -301.55179      211.17212      0.5          
      4000  -1882.0332     -206.28029      226.5169       0.5          
      5000  -1782.501      -90.852037      223.96864      0.5          
      6000  -1575.1886      107.36694      217.27476      0.5          
      7000  -1519.9421     -129.3202       213.34455      0.5          
      8000  -1392.1324     -282.31242      216.27778      0.5          
      9000  -1146.0323      16.65982       221.35921      0.5          
     10000  -971.82059     -191.23078      217.33902      0.5          
     11000  -741.25697     -8.245398       222.06073      0.5          
     12000  -769.74581     -377.07652      215.0007       0.5          
     13000  -559.0215      -35.36667       223.06454      0.5          
     14000  -485.3845      -57.922322      221.54818      0.5          
     15000  -435.21594     -319.63756      218.18062      0.5          
     16000  -469.86032     -29.077045      221.25705      0.5          
     17000  -459.00786      27.585481      220.71447      0.5          
     18000  -501.15343     -159.15632      218.29138      0.5          
     19000  -478.80823      216.97757      217.8329       0.5          
     20000  -502.15434      7.8382952      218.25957      0.5          
     21000  -626.28532     -320.62776      218.45122      0.5          
     22000  -621.25485     -206.05799      219.15137      0.5          
     23000  -671.81561      402.82211      217.6171       0.5          
     24000  -675.30901      146.53189      218.94937      0.5          
     25000  -641.29682     -300.21173      220.71717      0.5          
     26000  -685.32987      77.676538      222.81084      0.5          
     27000  -785.96613     -41.87432       220.47036      0.5          
     28000  -887.80675      2.8567529      217.95165      0.5          
     29000  -926.13308      60.892779      220.74114      0.5          
     30000  -1016.504       40.843624      218.53381      0.5          
     31000  -800.85585     -133.35768      221.10045      0.5          
     32000  -935.13866      57.634636      216.60474      0.5          
     33000  -925.02439      36.550676      217.47835      0.5          
     34000  -735.65071     -84.177793      224.75634      0.5          
     35000  -840.79306      156.8886       217.38363      0.5          
     36000  -911.14243     -98.769616      216.73826      0.5          
     37000  -870.67103     -97.49106       220.73982      0.5          
     38000  -721.2254       26.138547      220.82991      0.5          
     39000  -751.14581      17.012799      220.1612       0.5          
     40000  -773.83782     -165.87089      221.01326      0.5          
     41000  -725.73312      110.67824      220.69084      0.5          
     42000  -722.23343      38.793784      222.89571      0.5          
     43000  -637.36792      30.43476       225.71119      0.5          
     44000  -759.8505       61.347892      217.97552      0.5          
     45000  -750.88383      116.89376      220.55135      0.5          
     46000  -715.66731     -20.909694      222.75928      0.5          
     47000  -718.64602     -286.39601      222.88075      0.5          
     48000  -776.67928     -25.104944      220.81269      0.5          
     49000  -875.3145       38.301807      219.99941      0.5          
     50000  -832.94296      140.7776       221.61368      0.5          
     51000  -958.02024     -185.63816      217.68963      0.5          
     52000  -911.84474     -273.68         219.56889      0.5          
     53000  -933.36328      145.53395      218.6153       0.5          
     54000  -853.17553      70.908257      221.5927       0.5          
     55000  -1021.4606     -46.681649      217.49266      0.5          
     56000  -1001.4453      164.54716      223.52902      0.5          
     57000  -916.96753     -85.880524      221.74628      0.5          
     58000  -894.64967      222.00994      222.29874      0.5          
     59000  -974.98717      36.567992      218.36921      0.5          
     60000  -1050.269      -78.95803       215.17475      0.5          
     61000  -977.03623     -166.60307      221.34439      0.5          
     62000  -1040.3825      134.29433      217.52202      0.5          
     63000  -1103.0535      119.07137      217.00892      0.5          
     64000  -927.88298      117.14676      225.84682      0.5          
     65000  -1099.9282      169.5211       220.78304      0.5          
     66000  -1213.2433      150.00766      216.63795      0.5          
     67000  -1317.9448      74.067982      215.83738      0.5          
     68000  -1325.6838     -154.46117      217.80433      0.5          
     69000  -1243.6121      166.89874      221.36201      0.5          
     70000  -1178.7155      53.939714      223.21928      0.5          
     71000  -1184.4077      209.29368      223.52163      0.5          
     72000  -1282.0545      283.93687      217.94123      0.5          
     73000  -1255.4051      276.1236       216.80578      0.5          
     74000  -1149.8215      16.721791      223.31661      0.5          
     75000  -1290.2679      137.97009      217.37292      0.5          
     76000  -1223.7877      155.55931      217.07583      0.5          
     77000  -1253.9729     -113.00218      215.88009      0.5          
     78000  -1136.8462      286.60998      216.49927      0.5          
     79000  -1099.4258     -5.7661004      218.12054      0.5          
     80000  -1041.0726     -308.0569       216.76171      0.5          
     81000  -1021.8816      71.355169      218.19357      0.5          
     82000  -860.94004     -178.16073      220.8771       0.5          
     83000  -893.49896      33.117533      219.41974      0.5          
     84000  -900.392        167.16232      217.16909      0.5          
     85000  -815.44845     -325.86848      218.45905      0.5          
     86000  -795.25897     -231.48071      215.56373      0.5          
     87000  -645.30839      130.92376      222.05992      0.5          
     88000  -632.3364      -187.84122      221.94612      0.5          
     89000  -725.2379      -273.44783      219.49437      0.5          
     90000  -705.83148      203.09344      216.06102      0.5          
     91000  -661.55017      2.6409169      219.83319      0.5          
     92000  -612.41202     -120.15522      220.96431      0.5          
     93000  -662.67067     -42.185809      219.63923      0.5          
     94000  -702.69889     -11.967344      219.01926      0.5          
     95000  -731.20395      192.73781      216.12799      0.5          
     96000  -742.45972     -219.10923      218.78038      0.5          
     97000  -669.90345     -141.33018      221.1524       0.5          
     98000  -668.5635      -42.70641       223.50504      0.5          
     99000  -757.91075     -297.82307      219.89806      0.5          
    100000  -826.79816      173.52201      218.96108      0.5          
    101000  -797.10721     -4.1868575      221.36541      0.5          
    102000  -843.61181     -30.866257      219.43967      0.5          
    103000  -712.48755      6.6325512      222.69322      0.5          
    104000  -843.04974      71.433269      219.80954      0.5          
    105000  -848.8147       14.12786       220.26048      0.5          
    106000  -957.23629     -90.223232      220.45646      0.5          
    107000  -979.86476     -239.89928      220.91952      0.5          
    108000  -1001.9009     -83.415901      222.22303      0.5          
    109000  -1075.4183      193.17765      220.0847       0.5          
    110000  -1092.282      -41.810289      220.6781       0.5          
    111000  -1021.243      -83.449504      220.24716      0.5          
    112000  -1069.7447      49.112519      218.94008      0.5          
    113000  -1211.4095      172.49591      215.86562      0.5          
    114000  -902.32262      101.67433      225.54501      0.5          
    115000  -1028.7001     -234.02908      220.13786      0.5          
    116000  -1000.7705      165.59209      222.63685      0.5          
    117000  -905.94327      226.05972      220.71782      0.5          
    118000  -1032.0574      117.45248      218.92844      0.5          
    119000  -998.47083      168.49204      221.56267      0.5          
    120000  -890.71837     -67.09899       224.04321      0.5          
    121000  -912.32469      134.78862      220.37756      0.5          
    122000  -975.35496      58.966337      218.54536      0.5          
    123000  -812.35798      155.93006      223.83931      0.5          
    124000  -888.55152     -81.403117      221.95464      0.5          
    125000  -922.42473     -147.33071      216.77853      0.5          
    126000  -892.6296       48.811274      219.72324      0.5          
    127000  -914.52729     -160.60628      217.90794      0.5          
    128000  -823.1002       72.246072      219.67589      0.5          
    129000  -889.6057       154.38468      215.84391      0.5          
    130000  -720.47008     -7.2332647      222.71672      0.5          
    131000  -645.17377      75.991723      224.57228      0.5          
    132000  -801.37607      99.667062      217.82521      0.5          
    133000  -811.97225      129.51702      216.74126      0.5          
    134000  -896.13435     -257.70056      216.68826      0.5          
    135000  -832.10091     -150.49929      218.57883      0.5          
    136000  -650.99539      159.24638      221.63811      0.5          
    137000  -714.49109      4.821993       222.36313      0.5          
    138000  -754.31078     -171.38611      220.02792      0.5          
    139000  -708.27886     -90.383904      223.13338      0.5          
    140000  -637.7763       39.930249      221.69028      0.5          
    141000  -838.74841      207.90411      218.6886       0.5          
    142000  -819.09165      202.26905      220.8368       0.5          
    143000  -868.05177     -87.98227       218.35735      0.5          
    144000  -731.81053      3.9965658      221.58131      0.5          
    145000  -860.79209      243.01278      218.44133      0.5          
    146000  -885.31461     -248.6798       219.02485      0.5          
    147000  -841.57744     -146.38322      219.55341      0.5          
    148000  -839.19809      67.901993      223.53536      0.5          
    149000  -779.47198     -52.294836      225.50719      0.5          
    150000  -923.82384      164.93151      218.83918      0.5          
    151000  -816.06348     -48.121704      223.26768      0.5          
    152000  -956.13654      181.63568      221.25267      0.5          
    153000  -1059.0699      103.15799      216.04891      0.5          
    154000  -1019.4815     -162.66877      218.42273      0.5          
    155000  -1021.4347      65.992971      220.02985      0.5          
    156000  -963.75261      241.4665       220.59138      0.5          
    157000  -1001.8772     -187.78808      217.73242      0.5          
    158000  -900.52901      160.61742      223.55988      0.5          
    159000  -1031.6551      137.39217      218.19306      0.5          
    160000  -1058.2039      156.02536      216.84824      0.5          
    161000  -1002.3231      45.545836      217.95628      0.5          
    162000  -911.85694      244.11042      223.00204      0.5          
    163000  -889.60153     -165.74335      221.55191      0.5          
    164000  -858.51158     -172.10725      222.45516      0.5          
    165000  -842.32752      162.1095       222.24377      0.5          
    166000  -897.52018     -254.1494       222.24333      0.5          
    167000  -950.35919      152.32102      218.34657      0.5          
    168000  -866.30988      123.38919      217.60938      0.5          
    169000  -725.52582     -53.145888      223.53268      0.5          
    170000  -854.96942     -243.35804      221.08827      0.5          
    171000  -875.82947      34.898568      221.02726      0.5          
    172000  -839.73357     -81.652611      222.97122      0.5          
    173000  -859.90186     -203.20172      218.90489      0.5          
    174000  -883.07262      72.574035      219.134        0.5          
    175000  -842.0043      -140.97902      223.40425      0.5          
    176000  -788.51835     -287.59775      221.26298      0.5          
    177000  -783.36148     -121.72555      218.3451       0.5          
    178000  -806.68995     -24.187733      219.12652      0.5          
    179000  -759.29422      81.663116      220.36392      0.5          
    180000  -810.57914      246.44372      219.20863      0.5          
    181000  -769.61461     -232.66758      218.83622      0.5          
    182000  -750.18258     -183.66107      219.3772       0.5          
    183000  -800.98623      138.92143      221.43567      0.5          
    184000  -767.99354     -60.204797      221.00431      0.5          
    185000  -787.46517     -81.081947      219.28005      0.5          
    186000  -682.41677     -12.18218       223.2629       0.5          
    187000  -805.59637      91.231913      217.11604      0.5          
    188000  -749.4014       136.25206      219.7815       0.5          
    189000  -820.02846      37.424096      221.45299      0.5          
    190000  -842.10199     -182.07889      217.55521      0.5          
    191000  -819.41074      76.999612      217.18811      0.5          
    192000  -789.79318     -89.653675      222.21606      0.5          
    193000  -696.42096      169.93643      221.72794      0.5          
    194000  -699.56961      9.5482947      223.62505      0.5          
    195000  -851.18779     -167.28228      216.80155      0.5          
    196000  -859.71053     -215.95636      219.15628      0.5          
    197000  -885.10151      95.202092      219.99897      0.5          
    198000  -806.01525      56.466405      220.50166      0.5          
    199000  -875.70106     -67.412739      219.21243      0.5          
    200000  -838.70844     -112.44796      221.03694      0.5          
Loop time of 1527.79 on 8 procs for 200000 steps with 7050 atoms

Performance: 5.655 ns/day, 4.244 hours/ns, 130.908 timesteps/s, 922.901 katom-step/s
99.5% CPU use with 8 MPI tasks x 1 OpenMP threads

MPI task timing breakdown:
Section |  min time  |  avg time  |  max time  |%varavg| %total
---------------------------------------------------------------
Pair    | 951.68     | 1108.1     | 1268.7     | 301.8 | 72.53
Bond    | 4.2915     | 4.612      | 4.8863     |   9.2 |  0.30
Kspace  | 196.68     | 356.64     | 510.73     | 527.8 | 23.34
Neigh   | 13.114     | 13.128     | 13.145     |   0.3 |  0.86
Comm    | 30.584     | 33.06      | 35.76      |  28.0 |  2.16
Output  | 0.0080489  | 0.011722   | 0.031822   |   7.0 |  0.00
Modify  | 10.579     | 11.042     | 11.707     |  12.7 |  0.72
Other   |            | 1.162      |            |       |  0.08

Nlocal:         881.25 ave         945 max         808 min
Histogram: 1 1 1 0 0 1 1 1 0 2
Nghost:        7914.38 ave        8083 max        7752 min
Histogram: 1 1 2 0 0 1 0 0 2 1
Neighs:         393343 ave      443167 max      341253 min
Histogram: 2 0 1 0 1 1 0 0 1 2

Total # of neighbors = 3146746
Ave neighs/atom = 446.34695
Ave special neighs/atom = 2
Neighbor list builds = 1050
Dangerous builds = 0

unfix           NVT
unfix           COM_DRIFT
unfix           NVE
unfix           CPU_BALANCE
unfix           dens_profile
unfix           1
unfix           2
unfix           3

write_data      ${NAME}_final.data
write_data      CO2_final.data
System init for write_data ...
PPPM initialization ...
  using 12-bit tables for long-range coulomb (src/kspace.cpp:342)
  G vector (1/distance) = 0.20169663
  grid = 24 24 80
  stencil order = 5
  estimated absolute RMS force accuracy = 0.00286774
  estimated relative force accuracy = 8.6361139e-06
  using single precision FFTW3
  3d grid and FFT values/proc = 16967 6240
Generated 1 of 1 mixed pair_coeff terms from arithmetic mixing rule
Last active /omp style is kspace_style pppm/omp
reset_timestep  0

quit
